Si8                                     
   1.00000014768065     
    11.0888950000000008    0.1087150000000000    0.0000000000000000
     0.1087150000000000   10.8714659999999999    0.0000000000000000
     0.0000000000000000    0.0000000000000000   10.8714659999999999
   Si
    64
Direct
  0.0000000000000000  0.0000000000000000  0.0006397177792832
  0.0000000000000000  0.0000000000000000  0.5006397177792833
  0.0000000000000000  0.5000000000000000  0.0006397177792832
  0.0000000000000000  0.5000000000000000  0.5006397177792833
  0.5000000000000000  0.0000000000000000  0.0006397177792832
  0.5000000000000000  0.0000000000000000  0.5006397177792833
  0.5000000000000000  0.5000000000000000  0.0006397177792832
  0.5000000000000000  0.5000000000000000  0.5006397177792833
  0.3750000000000000  0.3750000000000000  0.1243602822207168
  0.3750000000000000  0.3750000000000000  0.6243602822207167
  0.3750000000000000  0.8750000000000000  0.1243602822207168
  0.3750000000000000  0.8750000000000000  0.6243602822207167
  0.8750000000000000  0.3750000000000000  0.1243602822207168
  0.8750000000000000  0.3750000000000000  0.6243602822207167
  0.8750000000000000  0.8750000000000000  0.1243602822207168
  0.8750000000000000  0.8750000000000000  0.6243602822207167
  0.0000000000000000  0.2500000000000000  0.2506397177792832
  0.0000000000000000  0.2500000000000000  0.7506397177792833
  0.0000000000000000  0.7500000000000000  0.2506397177792832
  0.0000000000000000  0.7500000000000000  0.7506397177792833
  0.5000000000000000  0.2500000000000000  0.2506397177792832
  0.5000000000000000  0.2500000000000000  0.7506397177792833
  0.5000000000000000  0.7500000000000000  0.2506397177792832
  0.5000000000000000  0.7500000000000000  0.7506397177792833
  0.3750000000000000  0.1250000000000000  0.3743602822207168
  0.3750000000000000  0.1250000000000000  0.8743602822207167
  0.3750000000000000  0.6250000000000000  0.3743602822207168
  0.3750000000000000  0.6250000000000000  0.8743602822207167
  0.8750000000000000  0.1250000000000000  0.3743602822207168
  0.8750000000000000  0.1250000000000000  0.8743602822207167
  0.8750000000000000  0.6250000000000000  0.3743602822207168
  0.8750000000000000  0.6250000000000000  0.8743602822207167
  0.2500000000000000  0.0000000000000000  0.2506397177792832
  0.2500000000000000  0.0000000000000000  0.7506397177792833
  0.2500000000000000  0.5000000000000000  0.2506397177792832
  0.2500000000000000  0.5000000000000000  0.7506397177792833
  0.7500000000000000  0.0000000000000000  0.2506397177792832
  0.7500000000000000  0.0000000000000000  0.7506397177792833
  0.7500000000000000  0.5000000000000000  0.2506397177792832
  0.7500000000000000  0.5000000000000000  0.7506397177792833
  0.1250000000000000  0.3750000000000000  0.3743602822207168
  0.1250000000000000  0.3750000000000000  0.8743602822207167
  0.1250000000000000  0.8750000000000000  0.3743602822207168
  0.1250000000000000  0.8750000000000000  0.8743602822207167
  0.6250000000000000  0.3750000000000000  0.3743602822207168
  0.6250000000000000  0.3750000000000000  0.8743602822207167
  0.6250000000000000  0.8750000000000000  0.3743602822207168
  0.6250000000000000  0.8750000000000000  0.8743602822207167
  0.2500000000000000  0.2500000000000000  0.0006397177792832
  0.2500000000000000  0.2500000000000000  0.5006397177792833
  0.2500000000000000  0.7500000000000000  0.0006397177792832
  0.2500000000000000  0.7500000000000000  0.5006397177792833
  0.7500000000000000  0.2500000000000000  0.0006397177792832
  0.7500000000000000  0.2500000000000000  0.5006397177792833
  0.7500000000000000  0.7500000000000000  0.0006397177792832
  0.7500000000000000  0.7500000000000000  0.5006397177792833
  0.1250000000000000  0.1250000000000000  0.1243602822207168
  0.1250000000000000  0.1250000000000000  0.6243602822207167
  0.1250000000000000  0.6250000000000000  0.1243602822207168
  0.1250000000000000  0.6250000000000000  0.6243602822207167
  0.6250000000000000  0.1250000000000000  0.1243602822207168
  0.6250000000000000  0.1250000000000000  0.6243602822207167
  0.6250000000000000  0.6250000000000000  0.1243602822207168
  0.6250000000000000  0.6250000000000000  0.6243602822207167
 
  0.00000000E+00  0.00000000E+00  0.00000000E+00
  0.00000000E+00  0.00000000E+00  0.00000000E+00
  0.00000000E+00  0.00000000E+00  0.00000000E+00
  0.00000000E+00  0.00000000E+00  0.00000000E+00
  0.00000000E+00  0.00000000E+00  0.00000000E+00
  0.00000000E+00  0.00000000E+00  0.00000000E+00
  0.00000000E+00  0.00000000E+00  0.00000000E+00
  0.00000000E+00  0.00000000E+00  0.00000000E+00
  0.00000000E+00  0.00000000E+00  0.00000000E+00
  0.00000000E+00  0.00000000E+00  0.00000000E+00
  0.00000000E+00  0.00000000E+00  0.00000000E+00
  0.00000000E+00  0.00000000E+00  0.00000000E+00
  0.00000000E+00  0.00000000E+00  0.00000000E+00
  0.00000000E+00  0.00000000E+00  0.00000000E+00
  0.00000000E+00  0.00000000E+00  0.00000000E+00
  0.00000000E+00  0.00000000E+00  0.00000000E+00
  0.00000000E+00  0.00000000E+00  0.00000000E+00
  0.00000000E+00  0.00000000E+00  0.00000000E+00
  0.00000000E+00  0.00000000E+00  0.00000000E+00
  0.00000000E+00  0.00000000E+00  0.00000000E+00
  0.00000000E+00  0.00000000E+00  0.00000000E+00
  0.00000000E+00  0.00000000E+00  0.00000000E+00
  0.00000000E+00  0.00000000E+00  0.00000000E+00
  0.00000000E+00  0.00000000E+00  0.00000000E+00
  0.00000000E+00  0.00000000E+00  0.00000000E+00
  0.00000000E+00  0.00000000E+00  0.00000000E+00
  0.00000000E+00  0.00000000E+00  0.00000000E+00
  0.00000000E+00  0.00000000E+00  0.00000000E+00
  0.00000000E+00  0.00000000E+00  0.00000000E+00
  0.00000000E+00  0.00000000E+00  0.00000000E+00
  0.00000000E+00  0.00000000E+00  0.00000000E+00
  0.00000000E+00  0.00000000E+00  0.00000000E+00
  0.00000000E+00  0.00000000E+00  0.00000000E+00
  0.00000000E+00  0.00000000E+00  0.00000000E+00
  0.00000000E+00  0.00000000E+00  0.00000000E+00
  0.00000000E+00  0.00000000E+00  0.00000000E+00
  0.00000000E+00  0.00000000E+00  0.00000000E+00
  0.00000000E+00  0.00000000E+00  0.00000000E+00
  0.00000000E+00  0.00000000E+00  0.00000000E+00
  0.00000000E+00  0.00000000E+00  0.00000000E+00
  0.00000000E+00  0.00000000E+00  0.00000000E+00
  0.00000000E+00  0.00000000E+00  0.00000000E+00
  0.00000000E+00  0.00000000E+00  0.00000000E+00
  0.00000000E+00  0.00000000E+00  0.00000000E+00
  0.00000000E+00  0.00000000E+00  0.00000000E+00
  0.00000000E+00  0.00000000E+00  0.00000000E+00
  0.00000000E+00  0.00000000E+00  0.00000000E+00
  0.00000000E+00  0.00000000E+00  0.00000000E+00
  0.00000000E+00  0.00000000E+00  0.00000000E+00
  0.00000000E+00  0.00000000E+00  0.00000000E+00
  0.00000000E+00  0.00000000E+00  0.00000000E+00
  0.00000000E+00  0.00000000E+00  0.00000000E+00
  0.00000000E+00  0.00000000E+00  0.00000000E+00
  0.00000000E+00  0.00000000E+00  0.00000000E+00
  0.00000000E+00  0.00000000E+00  0.00000000E+00
  0.00000000E+00  0.00000000E+00  0.00000000E+00
  0.00000000E+00  0.00000000E+00  0.00000000E+00
  0.00000000E+00  0.00000000E+00  0.00000000E+00
  0.00000000E+00  0.00000000E+00  0.00000000E+00
  0.00000000E+00  0.00000000E+00  0.00000000E+00
  0.00000000E+00  0.00000000E+00  0.00000000E+00
  0.00000000E+00  0.00000000E+00  0.00000000E+00
  0.00000000E+00  0.00000000E+00  0.00000000E+00
  0.00000000E+00  0.00000000E+00  0.00000000E+00
