Si8                                     
   1.00000014768065     
    10.3457770000000000   -0.1055690000000000    0.0000000000000000
    -0.1055690000000000   10.5569159999999993    0.0000000000000000
     0.0000000000000000    0.0000000000000000   10.5569159999999993
   Si
    64
Direct
  0.0000000000000000  0.0000000000000000  0.9990627012213946
  0.0000000000000000  0.0000000000000000  0.4990627012213946
  0.0000000000000000  0.5000000000000000  0.9990627012213946
  0.0000000000000000  0.5000000000000000  0.4990627012213946
  0.5000000000000000  0.0000000000000000  0.9990627012213946
  0.5000000000000000  0.0000000000000000  0.4990627012213946
  0.5000000000000000  0.5000000000000000  0.9990627012213946
  0.5000000000000000  0.5000000000000000  0.4990627012213946
  0.3750000000000000  0.3750000000000000  0.1259372987786054
  0.3750000000000000  0.3750000000000000  0.6259372987786054
  0.3750000000000000  0.8750000000000000  0.1259372987786054
  0.3750000000000000  0.8750000000000000  0.6259372987786054
  0.8750000000000000  0.3750000000000000  0.1259372987786054
  0.8750000000000000  0.3750000000000000  0.6259372987786054
  0.8750000000000000  0.8750000000000000  0.1259372987786054
  0.8750000000000000  0.8750000000000000  0.6259372987786054
  0.0000000000000000  0.2500000000000000  0.2490627012213946
  0.0000000000000000  0.2500000000000000  0.7490627012213946
  0.0000000000000000  0.7500000000000000  0.2490627012213946
  0.0000000000000000  0.7500000000000000  0.7490627012213946
  0.5000000000000000  0.2500000000000000  0.2490627012213946
  0.5000000000000000  0.2500000000000000  0.7490627012213946
  0.5000000000000000  0.7500000000000000  0.2490627012213946
  0.5000000000000000  0.7500000000000000  0.7490627012213946
  0.3750000000000000  0.1250000000000000  0.3759372987786054
  0.3750000000000000  0.1250000000000000  0.8759372987786054
  0.3750000000000000  0.6250000000000000  0.3759372987786054
  0.3750000000000000  0.6250000000000000  0.8759372987786054
  0.8750000000000000  0.1250000000000000  0.3759372987786054
  0.8750000000000000  0.1250000000000000  0.8759372987786054
  0.8750000000000000  0.6250000000000000  0.3759372987786054
  0.8750000000000000  0.6250000000000000  0.8759372987786054
  0.2500000000000000  0.0000000000000000  0.2490627012213946
  0.2500000000000000  0.0000000000000000  0.7490627012213946
  0.2500000000000000  0.5000000000000000  0.2490627012213946
  0.2500000000000000  0.5000000000000000  0.7490627012213946
  0.7500000000000000  0.0000000000000000  0.2490627012213946
  0.7500000000000000  0.0000000000000000  0.7490627012213946
  0.7500000000000000  0.5000000000000000  0.2490627012213946
  0.7500000000000000  0.5000000000000000  0.7490627012213946
  0.1250000000000000  0.3750000000000000  0.3759372987786054
  0.1250000000000000  0.3750000000000000  0.8759372987786054
  0.1250000000000000  0.8750000000000000  0.3759372987786054
  0.1250000000000000  0.8750000000000000  0.8759372987786054
  0.6250000000000000  0.3750000000000000  0.3759372987786054
  0.6250000000000000  0.3750000000000000  0.8759372987786054
  0.6250000000000000  0.8750000000000000  0.3759372987786054
  0.6250000000000000  0.8750000000000000  0.8759372987786054
  0.2500000000000000  0.2500000000000000  0.9990627012213946
  0.2500000000000000  0.2500000000000000  0.4990627012213946
  0.2500000000000000  0.7500000000000000  0.9990627012213946
  0.2500000000000000  0.7500000000000000  0.4990627012213946
  0.7500000000000000  0.2500000000000000  0.9990627012213946
  0.7500000000000000  0.2500000000000000  0.4990627012213946
  0.7500000000000000  0.7500000000000000  0.9990627012213946
  0.7500000000000000  0.7500000000000000  0.4990627012213946
  0.1250000000000000  0.1250000000000000  0.1259372987786054
  0.1250000000000000  0.1250000000000000  0.6259372987786054
  0.1250000000000000  0.6250000000000000  0.1259372987786054
  0.1250000000000000  0.6250000000000000  0.6259372987786054
  0.6250000000000000  0.1250000000000000  0.1259372987786054
  0.6250000000000000  0.1250000000000000  0.6259372987786054
  0.6250000000000000  0.6250000000000000  0.1259372987786054
  0.6250000000000000  0.6250000000000000  0.6259372987786054
 
  0.00000000E+00  0.00000000E+00  0.00000000E+00
  0.00000000E+00  0.00000000E+00  0.00000000E+00
  0.00000000E+00  0.00000000E+00  0.00000000E+00
  0.00000000E+00  0.00000000E+00  0.00000000E+00
  0.00000000E+00  0.00000000E+00  0.00000000E+00
  0.00000000E+00  0.00000000E+00  0.00000000E+00
  0.00000000E+00  0.00000000E+00  0.00000000E+00
  0.00000000E+00  0.00000000E+00  0.00000000E+00
  0.00000000E+00  0.00000000E+00  0.00000000E+00
  0.00000000E+00  0.00000000E+00  0.00000000E+00
  0.00000000E+00  0.00000000E+00  0.00000000E+00
  0.00000000E+00  0.00000000E+00  0.00000000E+00
  0.00000000E+00  0.00000000E+00  0.00000000E+00
  0.00000000E+00  0.00000000E+00  0.00000000E+00
  0.00000000E+00  0.00000000E+00  0.00000000E+00
  0.00000000E+00  0.00000000E+00  0.00000000E+00
  0.00000000E+00  0.00000000E+00  0.00000000E+00
  0.00000000E+00  0.00000000E+00  0.00000000E+00
  0.00000000E+00  0.00000000E+00  0.00000000E+00
  0.00000000E+00  0.00000000E+00  0.00000000E+00
  0.00000000E+00  0.00000000E+00  0.00000000E+00
  0.00000000E+00  0.00000000E+00  0.00000000E+00
  0.00000000E+00  0.00000000E+00  0.00000000E+00
  0.00000000E+00  0.00000000E+00  0.00000000E+00
  0.00000000E+00  0.00000000E+00  0.00000000E+00
  0.00000000E+00  0.00000000E+00  0.00000000E+00
  0.00000000E+00  0.00000000E+00  0.00000000E+00
  0.00000000E+00  0.00000000E+00  0.00000000E+00
  0.00000000E+00  0.00000000E+00  0.00000000E+00
  0.00000000E+00  0.00000000E+00  0.00000000E+00
  0.00000000E+00  0.00000000E+00  0.00000000E+00
  0.00000000E+00  0.00000000E+00  0.00000000E+00
  0.00000000E+00  0.00000000E+00  0.00000000E+00
  0.00000000E+00  0.00000000E+00  0.00000000E+00
  0.00000000E+00  0.00000000E+00  0.00000000E+00
  0.00000000E+00  0.00000000E+00  0.00000000E+00
  0.00000000E+00  0.00000000E+00  0.00000000E+00
  0.00000000E+00  0.00000000E+00  0.00000000E+00
  0.00000000E+00  0.00000000E+00  0.00000000E+00
  0.00000000E+00  0.00000000E+00  0.00000000E+00
  0.00000000E+00  0.00000000E+00  0.00000000E+00
  0.00000000E+00  0.00000000E+00  0.00000000E+00
  0.00000000E+00  0.00000000E+00  0.00000000E+00
  0.00000000E+00  0.00000000E+00  0.00000000E+00
  0.00000000E+00  0.00000000E+00  0.00000000E+00
  0.00000000E+00  0.00000000E+00  0.00000000E+00
  0.00000000E+00  0.00000000E+00  0.00000000E+00
  0.00000000E+00  0.00000000E+00  0.00000000E+00
  0.00000000E+00  0.00000000E+00  0.00000000E+00
  0.00000000E+00  0.00000000E+00  0.00000000E+00
  0.00000000E+00  0.00000000E+00  0.00000000E+00
  0.00000000E+00  0.00000000E+00  0.00000000E+00
  0.00000000E+00  0.00000000E+00  0.00000000E+00
  0.00000000E+00  0.00000000E+00  0.00000000E+00
  0.00000000E+00  0.00000000E+00  0.00000000E+00
  0.00000000E+00  0.00000000E+00  0.00000000E+00
  0.00000000E+00  0.00000000E+00  0.00000000E+00
  0.00000000E+00  0.00000000E+00  0.00000000E+00
  0.00000000E+00  0.00000000E+00  0.00000000E+00
  0.00000000E+00  0.00000000E+00  0.00000000E+00
  0.00000000E+00  0.00000000E+00  0.00000000E+00
  0.00000000E+00  0.00000000E+00  0.00000000E+00
  0.00000000E+00  0.00000000E+00  0.00000000E+00
  0.00000000E+00  0.00000000E+00  0.00000000E+00
