Si8                                     
   1.00000014768065     
    10.4513459999999991   -0.0527850000000000    0.0000000000000000
    -0.0527850000000000   10.5569159999999993    0.0000000000000000
     0.0000000000000000    0.0000000000000000   10.5569159999999993
   Si
    64
Direct
  0.0000000000000000  0.0000000000000000  0.9995524443312200
  0.0000000000000000  0.0000000000000000  0.4995524443312201
  0.0000000000000000  0.5000000000000000  0.9995524443312200
  0.0000000000000000  0.5000000000000000  0.4995524443312201
  0.5000000000000000  0.0000000000000000  0.9995524443312200
  0.5000000000000000  0.0000000000000000  0.4995524443312201
  0.5000000000000000  0.5000000000000000  0.9995524443312200
  0.5000000000000000  0.5000000000000000  0.4995524443312201
  0.3750000000000000  0.3750000000000000  0.1254475556687799
  0.3750000000000000  0.3750000000000000  0.6254475556687800
  0.3750000000000000  0.8750000000000000  0.1254475556687799
  0.3750000000000000  0.8750000000000000  0.6254475556687800
  0.8750000000000000  0.3750000000000000  0.1254475556687799
  0.8750000000000000  0.3750000000000000  0.6254475556687800
  0.8750000000000000  0.8750000000000000  0.1254475556687799
  0.8750000000000000  0.8750000000000000  0.6254475556687800
  0.0000000000000000  0.2500000000000000  0.2495524443312201
  0.0000000000000000  0.2500000000000000  0.7495524443312200
  0.0000000000000000  0.7500000000000000  0.2495524443312201
  0.0000000000000000  0.7500000000000000  0.7495524443312200
  0.5000000000000000  0.2500000000000000  0.2495524443312201
  0.5000000000000000  0.2500000000000000  0.7495524443312200
  0.5000000000000000  0.7500000000000000  0.2495524443312201
  0.5000000000000000  0.7500000000000000  0.7495524443312200
  0.3750000000000000  0.1250000000000000  0.3754475556687799
  0.3750000000000000  0.1250000000000000  0.8754475556687800
  0.3750000000000000  0.6250000000000000  0.3754475556687799
  0.3750000000000000  0.6250000000000000  0.8754475556687800
  0.8750000000000000  0.1250000000000000  0.3754475556687799
  0.8750000000000000  0.1250000000000000  0.8754475556687800
  0.8750000000000000  0.6250000000000000  0.3754475556687799
  0.8750000000000000  0.6250000000000000  0.8754475556687800
  0.2500000000000000  0.0000000000000000  0.2495524443312201
  0.2500000000000000  0.0000000000000000  0.7495524443312200
  0.2500000000000000  0.5000000000000000  0.2495524443312201
  0.2500000000000000  0.5000000000000000  0.7495524443312200
  0.7500000000000000  0.0000000000000000  0.2495524443312201
  0.7500000000000000  0.0000000000000000  0.7495524443312200
  0.7500000000000000  0.5000000000000000  0.2495524443312201
  0.7500000000000000  0.5000000000000000  0.7495524443312200
  0.1250000000000000  0.3750000000000000  0.3754475556687799
  0.1250000000000000  0.3750000000000000  0.8754475556687800
  0.1250000000000000  0.8750000000000000  0.3754475556687799
  0.1250000000000000  0.8750000000000000  0.8754475556687800
  0.6250000000000000  0.3750000000000000  0.3754475556687799
  0.6250000000000000  0.3750000000000000  0.8754475556687800
  0.6250000000000000  0.8750000000000000  0.3754475556687799
  0.6250000000000000  0.8750000000000000  0.8754475556687800
  0.2500000000000000  0.2500000000000000  0.9995524443312200
  0.2500000000000000  0.2500000000000000  0.4995524443312201
  0.2500000000000000  0.7500000000000000  0.9995524443312200
  0.2500000000000000  0.7500000000000000  0.4995524443312201
  0.7500000000000000  0.2500000000000000  0.9995524443312200
  0.7500000000000000  0.2500000000000000  0.4995524443312201
  0.7500000000000000  0.7500000000000000  0.9995524443312200
  0.7500000000000000  0.7500000000000000  0.4995524443312201
  0.1250000000000000  0.1250000000000000  0.1254475556687799
  0.1250000000000000  0.1250000000000000  0.6254475556687800
  0.1250000000000000  0.6250000000000000  0.1254475556687799
  0.1250000000000000  0.6250000000000000  0.6254475556687800
  0.6250000000000000  0.1250000000000000  0.1254475556687799
  0.6250000000000000  0.1250000000000000  0.6254475556687800
  0.6250000000000000  0.6250000000000000  0.1254475556687799
  0.6250000000000000  0.6250000000000000  0.6254475556687800
 
  0.00000000E+00  0.00000000E+00  0.00000000E+00
  0.00000000E+00  0.00000000E+00  0.00000000E+00
  0.00000000E+00  0.00000000E+00  0.00000000E+00
  0.00000000E+00  0.00000000E+00  0.00000000E+00
  0.00000000E+00  0.00000000E+00  0.00000000E+00
  0.00000000E+00  0.00000000E+00  0.00000000E+00
  0.00000000E+00  0.00000000E+00  0.00000000E+00
  0.00000000E+00  0.00000000E+00  0.00000000E+00
  0.00000000E+00  0.00000000E+00  0.00000000E+00
  0.00000000E+00  0.00000000E+00  0.00000000E+00
  0.00000000E+00  0.00000000E+00  0.00000000E+00
  0.00000000E+00  0.00000000E+00  0.00000000E+00
  0.00000000E+00  0.00000000E+00  0.00000000E+00
  0.00000000E+00  0.00000000E+00  0.00000000E+00
  0.00000000E+00  0.00000000E+00  0.00000000E+00
  0.00000000E+00  0.00000000E+00  0.00000000E+00
  0.00000000E+00  0.00000000E+00  0.00000000E+00
  0.00000000E+00  0.00000000E+00  0.00000000E+00
  0.00000000E+00  0.00000000E+00  0.00000000E+00
  0.00000000E+00  0.00000000E+00  0.00000000E+00
  0.00000000E+00  0.00000000E+00  0.00000000E+00
  0.00000000E+00  0.00000000E+00  0.00000000E+00
  0.00000000E+00  0.00000000E+00  0.00000000E+00
  0.00000000E+00  0.00000000E+00  0.00000000E+00
  0.00000000E+00  0.00000000E+00  0.00000000E+00
  0.00000000E+00  0.00000000E+00  0.00000000E+00
  0.00000000E+00  0.00000000E+00  0.00000000E+00
  0.00000000E+00  0.00000000E+00  0.00000000E+00
  0.00000000E+00  0.00000000E+00  0.00000000E+00
  0.00000000E+00  0.00000000E+00  0.00000000E+00
  0.00000000E+00  0.00000000E+00  0.00000000E+00
  0.00000000E+00  0.00000000E+00  0.00000000E+00
  0.00000000E+00  0.00000000E+00  0.00000000E+00
  0.00000000E+00  0.00000000E+00  0.00000000E+00
  0.00000000E+00  0.00000000E+00  0.00000000E+00
  0.00000000E+00  0.00000000E+00  0.00000000E+00
  0.00000000E+00  0.00000000E+00  0.00000000E+00
  0.00000000E+00  0.00000000E+00  0.00000000E+00
  0.00000000E+00  0.00000000E+00  0.00000000E+00
  0.00000000E+00  0.00000000E+00  0.00000000E+00
  0.00000000E+00  0.00000000E+00  0.00000000E+00
  0.00000000E+00  0.00000000E+00  0.00000000E+00
  0.00000000E+00  0.00000000E+00  0.00000000E+00
  0.00000000E+00  0.00000000E+00  0.00000000E+00
  0.00000000E+00  0.00000000E+00  0.00000000E+00
  0.00000000E+00  0.00000000E+00  0.00000000E+00
  0.00000000E+00  0.00000000E+00  0.00000000E+00
  0.00000000E+00  0.00000000E+00  0.00000000E+00
  0.00000000E+00  0.00000000E+00  0.00000000E+00
  0.00000000E+00  0.00000000E+00  0.00000000E+00
  0.00000000E+00  0.00000000E+00  0.00000000E+00
  0.00000000E+00  0.00000000E+00  0.00000000E+00
  0.00000000E+00  0.00000000E+00  0.00000000E+00
  0.00000000E+00  0.00000000E+00  0.00000000E+00
  0.00000000E+00  0.00000000E+00  0.00000000E+00
  0.00000000E+00  0.00000000E+00  0.00000000E+00
  0.00000000E+00  0.00000000E+00  0.00000000E+00
  0.00000000E+00  0.00000000E+00  0.00000000E+00
  0.00000000E+00  0.00000000E+00  0.00000000E+00
  0.00000000E+00  0.00000000E+00  0.00000000E+00
  0.00000000E+00  0.00000000E+00  0.00000000E+00
  0.00000000E+00  0.00000000E+00  0.00000000E+00
  0.00000000E+00  0.00000000E+00  0.00000000E+00
  0.00000000E+00  0.00000000E+00  0.00000000E+00
