Si8                                     
   1.00000014768065     
    10.8306140000000006    0.0800290000000000    0.0000000000000000
     0.0800290000000000   10.6705550000000002    0.0000000000000000
     0.0000000000000000    0.0000000000000000   10.6705550000000002
   Si
    64
Direct
  0.0000000000000000  0.0000000000000000  0.0005757098958711
  0.0000000000000000  0.0000000000000000  0.5005757098958710
  0.0000000000000000  0.5000000000000000  0.0005757098958711
  0.0000000000000000  0.5000000000000000  0.5005757098958710
  0.5000000000000000  0.0000000000000000  0.0005757098958711
  0.5000000000000000  0.0000000000000000  0.5005757098958710
  0.5000000000000000  0.5000000000000000  0.0005757098958711
  0.5000000000000000  0.5000000000000000  0.5005757098958710
  0.3750000000000000  0.3750000000000000  0.1244242901041289
  0.3750000000000000  0.3750000000000000  0.6244242901041290
  0.3750000000000000  0.8750000000000000  0.1244242901041289
  0.3750000000000000  0.8750000000000000  0.6244242901041290
  0.8750000000000000  0.3750000000000000  0.1244242901041289
  0.8750000000000000  0.3750000000000000  0.6244242901041290
  0.8750000000000000  0.8750000000000000  0.1244242901041289
  0.8750000000000000  0.8750000000000000  0.6244242901041290
  0.0000000000000000  0.2500000000000000  0.2505757098958711
  0.0000000000000000  0.2500000000000000  0.7505757098958710
  0.0000000000000000  0.7500000000000000  0.2505757098958711
  0.0000000000000000  0.7500000000000000  0.7505757098958710
  0.5000000000000000  0.2500000000000000  0.2505757098958711
  0.5000000000000000  0.2500000000000000  0.7505757098958710
  0.5000000000000000  0.7500000000000000  0.2505757098958711
  0.5000000000000000  0.7500000000000000  0.7505757098958710
  0.3750000000000000  0.1250000000000000  0.3744242901041289
  0.3750000000000000  0.1250000000000000  0.8744242901041290
  0.3750000000000000  0.6250000000000000  0.3744242901041289
  0.3750000000000000  0.6250000000000000  0.8744242901041290
  0.8750000000000000  0.1250000000000000  0.3744242901041289
  0.8750000000000000  0.1250000000000000  0.8744242901041290
  0.8750000000000000  0.6250000000000000  0.3744242901041289
  0.8750000000000000  0.6250000000000000  0.8744242901041290
  0.2500000000000000  0.0000000000000000  0.2505757098958711
  0.2500000000000000  0.0000000000000000  0.7505757098958710
  0.2500000000000000  0.5000000000000000  0.2505757098958711
  0.2500000000000000  0.5000000000000000  0.7505757098958710
  0.7500000000000000  0.0000000000000000  0.2505757098958711
  0.7500000000000000  0.0000000000000000  0.7505757098958710
  0.7500000000000000  0.5000000000000000  0.2505757098958711
  0.7500000000000000  0.5000000000000000  0.7505757098958710
  0.1250000000000000  0.3750000000000000  0.3744242901041289
  0.1250000000000000  0.3750000000000000  0.8744242901041290
  0.1250000000000000  0.8750000000000000  0.3744242901041289
  0.1250000000000000  0.8750000000000000  0.8744242901041290
  0.6250000000000000  0.3750000000000000  0.3744242901041289
  0.6250000000000000  0.3750000000000000  0.8744242901041290
  0.6250000000000000  0.8750000000000000  0.3744242901041289
  0.6250000000000000  0.8750000000000000  0.8744242901041290
  0.2500000000000000  0.2500000000000000  0.0005757098958711
  0.2500000000000000  0.2500000000000000  0.5005757098958710
  0.2500000000000000  0.7500000000000000  0.0005757098958711
  0.2500000000000000  0.7500000000000000  0.5005757098958710
  0.7500000000000000  0.2500000000000000  0.0005757098958711
  0.7500000000000000  0.2500000000000000  0.5005757098958710
  0.7500000000000000  0.7500000000000000  0.0005757098958711
  0.7500000000000000  0.7500000000000000  0.5005757098958710
  0.1250000000000000  0.1250000000000000  0.1244242901041289
  0.1250000000000000  0.1250000000000000  0.6244242901041290
  0.1250000000000000  0.6250000000000000  0.1244242901041289
  0.1250000000000000  0.6250000000000000  0.6244242901041290
  0.6250000000000000  0.1250000000000000  0.1244242901041289
  0.6250000000000000  0.1250000000000000  0.6244242901041290
  0.6250000000000000  0.6250000000000000  0.1244242901041289
  0.6250000000000000  0.6250000000000000  0.6244242901041290
 
  0.00000000E+00  0.00000000E+00  0.00000000E+00
  0.00000000E+00  0.00000000E+00  0.00000000E+00
  0.00000000E+00  0.00000000E+00  0.00000000E+00
  0.00000000E+00  0.00000000E+00  0.00000000E+00
  0.00000000E+00  0.00000000E+00  0.00000000E+00
  0.00000000E+00  0.00000000E+00  0.00000000E+00
  0.00000000E+00  0.00000000E+00  0.00000000E+00
  0.00000000E+00  0.00000000E+00  0.00000000E+00
  0.00000000E+00  0.00000000E+00  0.00000000E+00
  0.00000000E+00  0.00000000E+00  0.00000000E+00
  0.00000000E+00  0.00000000E+00  0.00000000E+00
  0.00000000E+00  0.00000000E+00  0.00000000E+00
  0.00000000E+00  0.00000000E+00  0.00000000E+00
  0.00000000E+00  0.00000000E+00  0.00000000E+00
  0.00000000E+00  0.00000000E+00  0.00000000E+00
  0.00000000E+00  0.00000000E+00  0.00000000E+00
  0.00000000E+00  0.00000000E+00  0.00000000E+00
  0.00000000E+00  0.00000000E+00  0.00000000E+00
  0.00000000E+00  0.00000000E+00  0.00000000E+00
  0.00000000E+00  0.00000000E+00  0.00000000E+00
  0.00000000E+00  0.00000000E+00  0.00000000E+00
  0.00000000E+00  0.00000000E+00  0.00000000E+00
  0.00000000E+00  0.00000000E+00  0.00000000E+00
  0.00000000E+00  0.00000000E+00  0.00000000E+00
  0.00000000E+00  0.00000000E+00  0.00000000E+00
  0.00000000E+00  0.00000000E+00  0.00000000E+00
  0.00000000E+00  0.00000000E+00  0.00000000E+00
  0.00000000E+00  0.00000000E+00  0.00000000E+00
  0.00000000E+00  0.00000000E+00  0.00000000E+00
  0.00000000E+00  0.00000000E+00  0.00000000E+00
  0.00000000E+00  0.00000000E+00  0.00000000E+00
  0.00000000E+00  0.00000000E+00  0.00000000E+00
  0.00000000E+00  0.00000000E+00  0.00000000E+00
  0.00000000E+00  0.00000000E+00  0.00000000E+00
  0.00000000E+00  0.00000000E+00  0.00000000E+00
  0.00000000E+00  0.00000000E+00  0.00000000E+00
  0.00000000E+00  0.00000000E+00  0.00000000E+00
  0.00000000E+00  0.00000000E+00  0.00000000E+00
  0.00000000E+00  0.00000000E+00  0.00000000E+00
  0.00000000E+00  0.00000000E+00  0.00000000E+00
  0.00000000E+00  0.00000000E+00  0.00000000E+00
  0.00000000E+00  0.00000000E+00  0.00000000E+00
  0.00000000E+00  0.00000000E+00  0.00000000E+00
  0.00000000E+00  0.00000000E+00  0.00000000E+00
  0.00000000E+00  0.00000000E+00  0.00000000E+00
  0.00000000E+00  0.00000000E+00  0.00000000E+00
  0.00000000E+00  0.00000000E+00  0.00000000E+00
  0.00000000E+00  0.00000000E+00  0.00000000E+00
  0.00000000E+00  0.00000000E+00  0.00000000E+00
  0.00000000E+00  0.00000000E+00  0.00000000E+00
  0.00000000E+00  0.00000000E+00  0.00000000E+00
  0.00000000E+00  0.00000000E+00  0.00000000E+00
  0.00000000E+00  0.00000000E+00  0.00000000E+00
  0.00000000E+00  0.00000000E+00  0.00000000E+00
  0.00000000E+00  0.00000000E+00  0.00000000E+00
  0.00000000E+00  0.00000000E+00  0.00000000E+00
  0.00000000E+00  0.00000000E+00  0.00000000E+00
  0.00000000E+00  0.00000000E+00  0.00000000E+00
  0.00000000E+00  0.00000000E+00  0.00000000E+00
  0.00000000E+00  0.00000000E+00  0.00000000E+00
  0.00000000E+00  0.00000000E+00  0.00000000E+00
  0.00000000E+00  0.00000000E+00  0.00000000E+00
  0.00000000E+00  0.00000000E+00  0.00000000E+00
  0.00000000E+00  0.00000000E+00  0.00000000E+00
