Si8                                     
   1.00000014768065     
    10.7239079999999998    0.0266760000000000    0.0000000000000000
     0.0266760000000000   10.6705550000000002    0.0000000000000000
     0.0000000000000000    0.0000000000000000   10.6705550000000002
   Si
    64
Direct
  0.0000000000000000  0.0000000000000000  0.0001939608185943
  0.0000000000000000  0.0000000000000000  0.5001939608185944
  0.0000000000000000  0.5000000000000000  0.0001939608185943
  0.0000000000000000  0.5000000000000000  0.5001939608185944
  0.5000000000000000  0.0000000000000000  0.0001939608185943
  0.5000000000000000  0.0000000000000000  0.5001939608185944
  0.5000000000000000  0.5000000000000000  0.0001939608185943
  0.5000000000000000  0.5000000000000000  0.5001939608185944
  0.3750000000000000  0.3750000000000000  0.1248060391814057
  0.3750000000000000  0.3750000000000000  0.6248060391814056
  0.3750000000000000  0.8750000000000000  0.1248060391814057
  0.3750000000000000  0.8750000000000000  0.6248060391814056
  0.8750000000000000  0.3750000000000000  0.1248060391814057
  0.8750000000000000  0.3750000000000000  0.6248060391814056
  0.8750000000000000  0.8750000000000000  0.1248060391814057
  0.8750000000000000  0.8750000000000000  0.6248060391814056
  0.0000000000000000  0.2500000000000000  0.2501939608185943
  0.0000000000000000  0.2500000000000000  0.7501939608185944
  0.0000000000000000  0.7500000000000000  0.2501939608185943
  0.0000000000000000  0.7500000000000000  0.7501939608185944
  0.5000000000000000  0.2500000000000000  0.2501939608185943
  0.5000000000000000  0.2500000000000000  0.7501939608185944
  0.5000000000000000  0.7500000000000000  0.2501939608185943
  0.5000000000000000  0.7500000000000000  0.7501939608185944
  0.3750000000000000  0.1250000000000000  0.3748060391814057
  0.3750000000000000  0.1250000000000000  0.8748060391814056
  0.3750000000000000  0.6250000000000000  0.3748060391814057
  0.3750000000000000  0.6250000000000000  0.8748060391814056
  0.8750000000000000  0.1250000000000000  0.3748060391814057
  0.8750000000000000  0.1250000000000000  0.8748060391814056
  0.8750000000000000  0.6250000000000000  0.3748060391814057
  0.8750000000000000  0.6250000000000000  0.8748060391814056
  0.2500000000000000  0.0000000000000000  0.2501939608185943
  0.2500000000000000  0.0000000000000000  0.7501939608185944
  0.2500000000000000  0.5000000000000000  0.2501939608185943
  0.2500000000000000  0.5000000000000000  0.7501939608185944
  0.7500000000000000  0.0000000000000000  0.2501939608185943
  0.7500000000000000  0.0000000000000000  0.7501939608185944
  0.7500000000000000  0.5000000000000000  0.2501939608185943
  0.7500000000000000  0.5000000000000000  0.7501939608185944
  0.1250000000000000  0.3750000000000000  0.3748060391814057
  0.1250000000000000  0.3750000000000000  0.8748060391814056
  0.1250000000000000  0.8750000000000000  0.3748060391814057
  0.1250000000000000  0.8750000000000000  0.8748060391814056
  0.6250000000000000  0.3750000000000000  0.3748060391814057
  0.6250000000000000  0.3750000000000000  0.8748060391814056
  0.6250000000000000  0.8750000000000000  0.3748060391814057
  0.6250000000000000  0.8750000000000000  0.8748060391814056
  0.2500000000000000  0.2500000000000000  0.0001939608185943
  0.2500000000000000  0.2500000000000000  0.5001939608185944
  0.2500000000000000  0.7500000000000000  0.0001939608185943
  0.2500000000000000  0.7500000000000000  0.5001939608185944
  0.7500000000000000  0.2500000000000000  0.0001939608185943
  0.7500000000000000  0.2500000000000000  0.5001939608185944
  0.7500000000000000  0.7500000000000000  0.0001939608185943
  0.7500000000000000  0.7500000000000000  0.5001939608185944
  0.1250000000000000  0.1250000000000000  0.1248060391814057
  0.1250000000000000  0.1250000000000000  0.6248060391814056
  0.1250000000000000  0.6250000000000000  0.1248060391814057
  0.1250000000000000  0.6250000000000000  0.6248060391814056
  0.6250000000000000  0.1250000000000000  0.1248060391814057
  0.6250000000000000  0.1250000000000000  0.6248060391814056
  0.6250000000000000  0.6250000000000000  0.1248060391814057
  0.6250000000000000  0.6250000000000000  0.6248060391814056
 
  0.00000000E+00  0.00000000E+00  0.00000000E+00
  0.00000000E+00  0.00000000E+00  0.00000000E+00
  0.00000000E+00  0.00000000E+00  0.00000000E+00
  0.00000000E+00  0.00000000E+00  0.00000000E+00
  0.00000000E+00  0.00000000E+00  0.00000000E+00
  0.00000000E+00  0.00000000E+00  0.00000000E+00
  0.00000000E+00  0.00000000E+00  0.00000000E+00
  0.00000000E+00  0.00000000E+00  0.00000000E+00
  0.00000000E+00  0.00000000E+00  0.00000000E+00
  0.00000000E+00  0.00000000E+00  0.00000000E+00
  0.00000000E+00  0.00000000E+00  0.00000000E+00
  0.00000000E+00  0.00000000E+00  0.00000000E+00
  0.00000000E+00  0.00000000E+00  0.00000000E+00
  0.00000000E+00  0.00000000E+00  0.00000000E+00
  0.00000000E+00  0.00000000E+00  0.00000000E+00
  0.00000000E+00  0.00000000E+00  0.00000000E+00
  0.00000000E+00  0.00000000E+00  0.00000000E+00
  0.00000000E+00  0.00000000E+00  0.00000000E+00
  0.00000000E+00  0.00000000E+00  0.00000000E+00
  0.00000000E+00  0.00000000E+00  0.00000000E+00
  0.00000000E+00  0.00000000E+00  0.00000000E+00
  0.00000000E+00  0.00000000E+00  0.00000000E+00
  0.00000000E+00  0.00000000E+00  0.00000000E+00
  0.00000000E+00  0.00000000E+00  0.00000000E+00
  0.00000000E+00  0.00000000E+00  0.00000000E+00
  0.00000000E+00  0.00000000E+00  0.00000000E+00
  0.00000000E+00  0.00000000E+00  0.00000000E+00
  0.00000000E+00  0.00000000E+00  0.00000000E+00
  0.00000000E+00  0.00000000E+00  0.00000000E+00
  0.00000000E+00  0.00000000E+00  0.00000000E+00
  0.00000000E+00  0.00000000E+00  0.00000000E+00
  0.00000000E+00  0.00000000E+00  0.00000000E+00
  0.00000000E+00  0.00000000E+00  0.00000000E+00
  0.00000000E+00  0.00000000E+00  0.00000000E+00
  0.00000000E+00  0.00000000E+00  0.00000000E+00
  0.00000000E+00  0.00000000E+00  0.00000000E+00
  0.00000000E+00  0.00000000E+00  0.00000000E+00
  0.00000000E+00  0.00000000E+00  0.00000000E+00
  0.00000000E+00  0.00000000E+00  0.00000000E+00
  0.00000000E+00  0.00000000E+00  0.00000000E+00
  0.00000000E+00  0.00000000E+00  0.00000000E+00
  0.00000000E+00  0.00000000E+00  0.00000000E+00
  0.00000000E+00  0.00000000E+00  0.00000000E+00
  0.00000000E+00  0.00000000E+00  0.00000000E+00
  0.00000000E+00  0.00000000E+00  0.00000000E+00
  0.00000000E+00  0.00000000E+00  0.00000000E+00
  0.00000000E+00  0.00000000E+00  0.00000000E+00
  0.00000000E+00  0.00000000E+00  0.00000000E+00
  0.00000000E+00  0.00000000E+00  0.00000000E+00
  0.00000000E+00  0.00000000E+00  0.00000000E+00
  0.00000000E+00  0.00000000E+00  0.00000000E+00
  0.00000000E+00  0.00000000E+00  0.00000000E+00
  0.00000000E+00  0.00000000E+00  0.00000000E+00
  0.00000000E+00  0.00000000E+00  0.00000000E+00
  0.00000000E+00  0.00000000E+00  0.00000000E+00
  0.00000000E+00  0.00000000E+00  0.00000000E+00
  0.00000000E+00  0.00000000E+00  0.00000000E+00
  0.00000000E+00  0.00000000E+00  0.00000000E+00
  0.00000000E+00  0.00000000E+00  0.00000000E+00
  0.00000000E+00  0.00000000E+00  0.00000000E+00
  0.00000000E+00  0.00000000E+00  0.00000000E+00
  0.00000000E+00  0.00000000E+00  0.00000000E+00
  0.00000000E+00  0.00000000E+00  0.00000000E+00
  0.00000000E+00  0.00000000E+00  0.00000000E+00
