Si8                                     
   1.00000014768065     
    10.6775880000000001   -0.0268280000000000    0.0000000000000000
    -0.0268280000000000   10.7312440000000002    0.0000000000000000
     0.0000000000000000    0.0000000000000000   10.7312440000000002
   Si
    64
Direct
  0.0000000000000000  0.0000000000000000  0.9998117306561837
  0.0000000000000000  0.0000000000000000  0.4998117306561837
  0.0000000000000000  0.5000000000000000  0.9998117306561837
  0.0000000000000000  0.5000000000000000  0.4998117306561837
  0.5000000000000000  0.0000000000000000  0.9998117306561837
  0.5000000000000000  0.0000000000000000  0.4998117306561837
  0.5000000000000000  0.5000000000000000  0.9998117306561837
  0.5000000000000000  0.5000000000000000  0.4998117306561837
  0.3750000000000000  0.3750000000000000  0.1251882693438164
  0.3750000000000000  0.3750000000000000  0.6251882693438163
  0.3750000000000000  0.8750000000000000  0.1251882693438164
  0.3750000000000000  0.8750000000000000  0.6251882693438163
  0.8750000000000000  0.3750000000000000  0.1251882693438164
  0.8750000000000000  0.3750000000000000  0.6251882693438163
  0.8750000000000000  0.8750000000000000  0.1251882693438164
  0.8750000000000000  0.8750000000000000  0.6251882693438163
  0.0000000000000000  0.2500000000000000  0.2498117306561836
  0.0000000000000000  0.2500000000000000  0.7498117306561837
  0.0000000000000000  0.7500000000000000  0.2498117306561836
  0.0000000000000000  0.7500000000000000  0.7498117306561837
  0.5000000000000000  0.2500000000000000  0.2498117306561836
  0.5000000000000000  0.2500000000000000  0.7498117306561837
  0.5000000000000000  0.7500000000000000  0.2498117306561836
  0.5000000000000000  0.7500000000000000  0.7498117306561837
  0.3750000000000000  0.1250000000000000  0.3751882693438163
  0.3750000000000000  0.1250000000000000  0.8751882693438163
  0.3750000000000000  0.6250000000000000  0.3751882693438163
  0.3750000000000000  0.6250000000000000  0.8751882693438163
  0.8750000000000000  0.1250000000000000  0.3751882693438163
  0.8750000000000000  0.1250000000000000  0.8751882693438163
  0.8750000000000000  0.6250000000000000  0.3751882693438163
  0.8750000000000000  0.6250000000000000  0.8751882693438163
  0.2500000000000000  0.0000000000000000  0.2498117306561836
  0.2500000000000000  0.0000000000000000  0.7498117306561837
  0.2500000000000000  0.5000000000000000  0.2498117306561836
  0.2500000000000000  0.5000000000000000  0.7498117306561837
  0.7500000000000000  0.0000000000000000  0.2498117306561836
  0.7500000000000000  0.0000000000000000  0.7498117306561837
  0.7500000000000000  0.5000000000000000  0.2498117306561836
  0.7500000000000000  0.5000000000000000  0.7498117306561837
  0.1250000000000000  0.3750000000000000  0.3751882693438163
  0.1250000000000000  0.3750000000000000  0.8751882693438163
  0.1250000000000000  0.8750000000000000  0.3751882693438163
  0.1250000000000000  0.8750000000000000  0.8751882693438163
  0.6250000000000000  0.3750000000000000  0.3751882693438163
  0.6250000000000000  0.3750000000000000  0.8751882693438163
  0.6250000000000000  0.8750000000000000  0.3751882693438163
  0.6250000000000000  0.8750000000000000  0.8751882693438163
  0.2500000000000000  0.2500000000000000  0.9998117306561837
  0.2500000000000000  0.2500000000000000  0.4998117306561837
  0.2500000000000000  0.7500000000000000  0.9998117306561837
  0.2500000000000000  0.7500000000000000  0.4998117306561837
  0.7500000000000000  0.2500000000000000  0.9998117306561837
  0.7500000000000000  0.2500000000000000  0.4998117306561837
  0.7500000000000000  0.7500000000000000  0.9998117306561837
  0.7500000000000000  0.7500000000000000  0.4998117306561837
  0.1250000000000000  0.1250000000000000  0.1251882693438164
  0.1250000000000000  0.1250000000000000  0.6251882693438163
  0.1250000000000000  0.6250000000000000  0.1251882693438164
  0.1250000000000000  0.6250000000000000  0.6251882693438163
  0.6250000000000000  0.1250000000000000  0.1251882693438164
  0.6250000000000000  0.1250000000000000  0.6251882693438163
  0.6250000000000000  0.6250000000000000  0.1251882693438164
  0.6250000000000000  0.6250000000000000  0.6251882693438163
 
  0.00000000E+00  0.00000000E+00  0.00000000E+00
  0.00000000E+00  0.00000000E+00  0.00000000E+00
  0.00000000E+00  0.00000000E+00  0.00000000E+00
  0.00000000E+00  0.00000000E+00  0.00000000E+00
  0.00000000E+00  0.00000000E+00  0.00000000E+00
  0.00000000E+00  0.00000000E+00  0.00000000E+00
  0.00000000E+00  0.00000000E+00  0.00000000E+00
  0.00000000E+00  0.00000000E+00  0.00000000E+00
  0.00000000E+00  0.00000000E+00  0.00000000E+00
  0.00000000E+00  0.00000000E+00  0.00000000E+00
  0.00000000E+00  0.00000000E+00  0.00000000E+00
  0.00000000E+00  0.00000000E+00  0.00000000E+00
  0.00000000E+00  0.00000000E+00  0.00000000E+00
  0.00000000E+00  0.00000000E+00  0.00000000E+00
  0.00000000E+00  0.00000000E+00  0.00000000E+00
  0.00000000E+00  0.00000000E+00  0.00000000E+00
  0.00000000E+00  0.00000000E+00  0.00000000E+00
  0.00000000E+00  0.00000000E+00  0.00000000E+00
  0.00000000E+00  0.00000000E+00  0.00000000E+00
  0.00000000E+00  0.00000000E+00  0.00000000E+00
  0.00000000E+00  0.00000000E+00  0.00000000E+00
  0.00000000E+00  0.00000000E+00  0.00000000E+00
  0.00000000E+00  0.00000000E+00  0.00000000E+00
  0.00000000E+00  0.00000000E+00  0.00000000E+00
  0.00000000E+00  0.00000000E+00  0.00000000E+00
  0.00000000E+00  0.00000000E+00  0.00000000E+00
  0.00000000E+00  0.00000000E+00  0.00000000E+00
  0.00000000E+00  0.00000000E+00  0.00000000E+00
  0.00000000E+00  0.00000000E+00  0.00000000E+00
  0.00000000E+00  0.00000000E+00  0.00000000E+00
  0.00000000E+00  0.00000000E+00  0.00000000E+00
  0.00000000E+00  0.00000000E+00  0.00000000E+00
  0.00000000E+00  0.00000000E+00  0.00000000E+00
  0.00000000E+00  0.00000000E+00  0.00000000E+00
  0.00000000E+00  0.00000000E+00  0.00000000E+00
  0.00000000E+00  0.00000000E+00  0.00000000E+00
  0.00000000E+00  0.00000000E+00  0.00000000E+00
  0.00000000E+00  0.00000000E+00  0.00000000E+00
  0.00000000E+00  0.00000000E+00  0.00000000E+00
  0.00000000E+00  0.00000000E+00  0.00000000E+00
  0.00000000E+00  0.00000000E+00  0.00000000E+00
  0.00000000E+00  0.00000000E+00  0.00000000E+00
  0.00000000E+00  0.00000000E+00  0.00000000E+00
  0.00000000E+00  0.00000000E+00  0.00000000E+00
  0.00000000E+00  0.00000000E+00  0.00000000E+00
  0.00000000E+00  0.00000000E+00  0.00000000E+00
  0.00000000E+00  0.00000000E+00  0.00000000E+00
  0.00000000E+00  0.00000000E+00  0.00000000E+00
  0.00000000E+00  0.00000000E+00  0.00000000E+00
  0.00000000E+00  0.00000000E+00  0.00000000E+00
  0.00000000E+00  0.00000000E+00  0.00000000E+00
  0.00000000E+00  0.00000000E+00  0.00000000E+00
  0.00000000E+00  0.00000000E+00  0.00000000E+00
  0.00000000E+00  0.00000000E+00  0.00000000E+00
  0.00000000E+00  0.00000000E+00  0.00000000E+00
  0.00000000E+00  0.00000000E+00  0.00000000E+00
  0.00000000E+00  0.00000000E+00  0.00000000E+00
  0.00000000E+00  0.00000000E+00  0.00000000E+00
  0.00000000E+00  0.00000000E+00  0.00000000E+00
  0.00000000E+00  0.00000000E+00  0.00000000E+00
  0.00000000E+00  0.00000000E+00  0.00000000E+00
  0.00000000E+00  0.00000000E+00  0.00000000E+00
  0.00000000E+00  0.00000000E+00  0.00000000E+00
  0.00000000E+00  0.00000000E+00  0.00000000E+00
