Si8                                     
   1.00000014768065     
    10.7161729999999995    0.0530500000000000    0.0000000000000000
     0.0530500000000000   10.6100720000000006    0.0000000000000000
     0.0000000000000000    0.0000000000000000   10.6100720000000006
   Si
    64
Direct
  0.0000000000000000  0.0000000000000000  0.0004037841059820
  0.0000000000000000  0.0000000000000000  0.5004037841059821
  0.0000000000000000  0.5000000000000000  0.0004037841059820
  0.0000000000000000  0.5000000000000000  0.5004037841059821
  0.5000000000000000  0.0000000000000000  0.0004037841059820
  0.5000000000000000  0.0000000000000000  0.5004037841059821
  0.5000000000000000  0.5000000000000000  0.0004037841059820
  0.5000000000000000  0.5000000000000000  0.5004037841059821
  0.3750000000000000  0.3750000000000000  0.1245962158940180
  0.3750000000000000  0.3750000000000000  0.6245962158940179
  0.3750000000000000  0.8750000000000000  0.1245962158940180
  0.3750000000000000  0.8750000000000000  0.6245962158940179
  0.8750000000000000  0.3750000000000000  0.1245962158940180
  0.8750000000000000  0.3750000000000000  0.6245962158940179
  0.8750000000000000  0.8750000000000000  0.1245962158940180
  0.8750000000000000  0.8750000000000000  0.6245962158940179
  0.0000000000000000  0.2500000000000000  0.2504037841059820
  0.0000000000000000  0.2500000000000000  0.7504037841059821
  0.0000000000000000  0.7500000000000000  0.2504037841059820
  0.0000000000000000  0.7500000000000000  0.7504037841059821
  0.5000000000000000  0.2500000000000000  0.2504037841059820
  0.5000000000000000  0.2500000000000000  0.7504037841059821
  0.5000000000000000  0.7500000000000000  0.2504037841059820
  0.5000000000000000  0.7500000000000000  0.7504037841059821
  0.3750000000000000  0.1250000000000000  0.3745962158940180
  0.3750000000000000  0.1250000000000000  0.8745962158940179
  0.3750000000000000  0.6250000000000000  0.3745962158940180
  0.3750000000000000  0.6250000000000000  0.8745962158940179
  0.8750000000000000  0.1250000000000000  0.3745962158940180
  0.8750000000000000  0.1250000000000000  0.8745962158940179
  0.8750000000000000  0.6250000000000000  0.3745962158940180
  0.8750000000000000  0.6250000000000000  0.8745962158940179
  0.2500000000000000  0.0000000000000000  0.2504037841059820
  0.2500000000000000  0.0000000000000000  0.7504037841059821
  0.2500000000000000  0.5000000000000000  0.2504037841059820
  0.2500000000000000  0.5000000000000000  0.7504037841059821
  0.7500000000000000  0.0000000000000000  0.2504037841059820
  0.7500000000000000  0.0000000000000000  0.7504037841059821
  0.7500000000000000  0.5000000000000000  0.2504037841059820
  0.7500000000000000  0.5000000000000000  0.7504037841059821
  0.1250000000000000  0.3750000000000000  0.3745962158940180
  0.1250000000000000  0.3750000000000000  0.8745962158940179
  0.1250000000000000  0.8750000000000000  0.3745962158940180
  0.1250000000000000  0.8750000000000000  0.8745962158940179
  0.6250000000000000  0.3750000000000000  0.3745962158940180
  0.6250000000000000  0.3750000000000000  0.8745962158940179
  0.6250000000000000  0.8750000000000000  0.3745962158940180
  0.6250000000000000  0.8750000000000000  0.8745962158940179
  0.2500000000000000  0.2500000000000000  0.0004037841059820
  0.2500000000000000  0.2500000000000000  0.5004037841059821
  0.2500000000000000  0.7500000000000000  0.0004037841059820
  0.2500000000000000  0.7500000000000000  0.5004037841059821
  0.7500000000000000  0.2500000000000000  0.0004037841059820
  0.7500000000000000  0.2500000000000000  0.5004037841059821
  0.7500000000000000  0.7500000000000000  0.0004037841059820
  0.7500000000000000  0.7500000000000000  0.5004037841059821
  0.1250000000000000  0.1250000000000000  0.1245962158940180
  0.1250000000000000  0.1250000000000000  0.6245962158940179
  0.1250000000000000  0.6250000000000000  0.1245962158940180
  0.1250000000000000  0.6250000000000000  0.6245962158940179
  0.6250000000000000  0.1250000000000000  0.1245962158940180
  0.6250000000000000  0.1250000000000000  0.6245962158940179
  0.6250000000000000  0.6250000000000000  0.1245962158940180
  0.6250000000000000  0.6250000000000000  0.6245962158940179
 
  0.00000000E+00  0.00000000E+00  0.00000000E+00
  0.00000000E+00  0.00000000E+00  0.00000000E+00
  0.00000000E+00  0.00000000E+00  0.00000000E+00
  0.00000000E+00  0.00000000E+00  0.00000000E+00
  0.00000000E+00  0.00000000E+00  0.00000000E+00
  0.00000000E+00  0.00000000E+00  0.00000000E+00
  0.00000000E+00  0.00000000E+00  0.00000000E+00
  0.00000000E+00  0.00000000E+00  0.00000000E+00
  0.00000000E+00  0.00000000E+00  0.00000000E+00
  0.00000000E+00  0.00000000E+00  0.00000000E+00
  0.00000000E+00  0.00000000E+00  0.00000000E+00
  0.00000000E+00  0.00000000E+00  0.00000000E+00
  0.00000000E+00  0.00000000E+00  0.00000000E+00
  0.00000000E+00  0.00000000E+00  0.00000000E+00
  0.00000000E+00  0.00000000E+00  0.00000000E+00
  0.00000000E+00  0.00000000E+00  0.00000000E+00
  0.00000000E+00  0.00000000E+00  0.00000000E+00
  0.00000000E+00  0.00000000E+00  0.00000000E+00
  0.00000000E+00  0.00000000E+00  0.00000000E+00
  0.00000000E+00  0.00000000E+00  0.00000000E+00
  0.00000000E+00  0.00000000E+00  0.00000000E+00
  0.00000000E+00  0.00000000E+00  0.00000000E+00
  0.00000000E+00  0.00000000E+00  0.00000000E+00
  0.00000000E+00  0.00000000E+00  0.00000000E+00
  0.00000000E+00  0.00000000E+00  0.00000000E+00
  0.00000000E+00  0.00000000E+00  0.00000000E+00
  0.00000000E+00  0.00000000E+00  0.00000000E+00
  0.00000000E+00  0.00000000E+00  0.00000000E+00
  0.00000000E+00  0.00000000E+00  0.00000000E+00
  0.00000000E+00  0.00000000E+00  0.00000000E+00
  0.00000000E+00  0.00000000E+00  0.00000000E+00
  0.00000000E+00  0.00000000E+00  0.00000000E+00
  0.00000000E+00  0.00000000E+00  0.00000000E+00
  0.00000000E+00  0.00000000E+00  0.00000000E+00
  0.00000000E+00  0.00000000E+00  0.00000000E+00
  0.00000000E+00  0.00000000E+00  0.00000000E+00
  0.00000000E+00  0.00000000E+00  0.00000000E+00
  0.00000000E+00  0.00000000E+00  0.00000000E+00
  0.00000000E+00  0.00000000E+00  0.00000000E+00
  0.00000000E+00  0.00000000E+00  0.00000000E+00
  0.00000000E+00  0.00000000E+00  0.00000000E+00
  0.00000000E+00  0.00000000E+00  0.00000000E+00
  0.00000000E+00  0.00000000E+00  0.00000000E+00
  0.00000000E+00  0.00000000E+00  0.00000000E+00
  0.00000000E+00  0.00000000E+00  0.00000000E+00
  0.00000000E+00  0.00000000E+00  0.00000000E+00
  0.00000000E+00  0.00000000E+00  0.00000000E+00
  0.00000000E+00  0.00000000E+00  0.00000000E+00
  0.00000000E+00  0.00000000E+00  0.00000000E+00
  0.00000000E+00  0.00000000E+00  0.00000000E+00
  0.00000000E+00  0.00000000E+00  0.00000000E+00
  0.00000000E+00  0.00000000E+00  0.00000000E+00
  0.00000000E+00  0.00000000E+00  0.00000000E+00
  0.00000000E+00  0.00000000E+00  0.00000000E+00
  0.00000000E+00  0.00000000E+00  0.00000000E+00
  0.00000000E+00  0.00000000E+00  0.00000000E+00
  0.00000000E+00  0.00000000E+00  0.00000000E+00
  0.00000000E+00  0.00000000E+00  0.00000000E+00
  0.00000000E+00  0.00000000E+00  0.00000000E+00
  0.00000000E+00  0.00000000E+00  0.00000000E+00
  0.00000000E+00  0.00000000E+00  0.00000000E+00
  0.00000000E+00  0.00000000E+00  0.00000000E+00
  0.00000000E+00  0.00000000E+00  0.00000000E+00
  0.00000000E+00  0.00000000E+00  0.00000000E+00
