Si8                                     
   1.00000014768065     
    10.8609249999999999    0.0802530000000000    0.0000000000000000
     0.0802530000000000   10.7004190000000001    0.0000000000000000
     0.0000000000000000    0.0000000000000000   10.7004190000000001
   Si
    64
Direct
  0.0000000000000000  0.0000000000000000  0.0005610839504676
  0.0000000000000000  0.0000000000000000  0.5005610839504676
  0.0000000000000000  0.5000000000000000  0.0005610839504676
  0.0000000000000000  0.5000000000000000  0.5005610839504676
  0.5000000000000000  0.0000000000000000  0.0005610839504676
  0.5000000000000000  0.0000000000000000  0.5005610839504676
  0.5000000000000000  0.5000000000000000  0.0005610839504676
  0.5000000000000000  0.5000000000000000  0.5005610839504676
  0.3750000000000000  0.3750000000000000  0.1244389160495324
  0.3750000000000000  0.3750000000000000  0.6244389160495324
  0.3750000000000000  0.8750000000000000  0.1244389160495324
  0.3750000000000000  0.8750000000000000  0.6244389160495324
  0.8750000000000000  0.3750000000000000  0.1244389160495324
  0.8750000000000000  0.3750000000000000  0.6244389160495324
  0.8750000000000000  0.8750000000000000  0.1244389160495324
  0.8750000000000000  0.8750000000000000  0.6244389160495324
  0.0000000000000000  0.2500000000000000  0.2505610839504676
  0.0000000000000000  0.2500000000000000  0.7505610839504676
  0.0000000000000000  0.7500000000000000  0.2505610839504676
  0.0000000000000000  0.7500000000000000  0.7505610839504676
  0.5000000000000000  0.2500000000000000  0.2505610839504676
  0.5000000000000000  0.2500000000000000  0.7505610839504676
  0.5000000000000000  0.7500000000000000  0.2505610839504676
  0.5000000000000000  0.7500000000000000  0.7505610839504676
  0.3750000000000000  0.1250000000000000  0.3744389160495324
  0.3750000000000000  0.1250000000000000  0.8744389160495324
  0.3750000000000000  0.6250000000000000  0.3744389160495324
  0.3750000000000000  0.6250000000000000  0.8744389160495324
  0.8750000000000000  0.1250000000000000  0.3744389160495324
  0.8750000000000000  0.1250000000000000  0.8744389160495324
  0.8750000000000000  0.6250000000000000  0.3744389160495324
  0.8750000000000000  0.6250000000000000  0.8744389160495324
  0.2500000000000000  0.0000000000000000  0.2505610839504676
  0.2500000000000000  0.0000000000000000  0.7505610839504676
  0.2500000000000000  0.5000000000000000  0.2505610839504676
  0.2500000000000000  0.5000000000000000  0.7505610839504676
  0.7500000000000000  0.0000000000000000  0.2505610839504676
  0.7500000000000000  0.0000000000000000  0.7505610839504676
  0.7500000000000000  0.5000000000000000  0.2505610839504676
  0.7500000000000000  0.5000000000000000  0.7505610839504676
  0.1250000000000000  0.3750000000000000  0.3744389160495324
  0.1250000000000000  0.3750000000000000  0.8744389160495324
  0.1250000000000000  0.8750000000000000  0.3744389160495324
  0.1250000000000000  0.8750000000000000  0.8744389160495324
  0.6250000000000000  0.3750000000000000  0.3744389160495324
  0.6250000000000000  0.3750000000000000  0.8744389160495324
  0.6250000000000000  0.8750000000000000  0.3744389160495324
  0.6250000000000000  0.8750000000000000  0.8744389160495324
  0.2500000000000000  0.2500000000000000  0.0005610839504676
  0.2500000000000000  0.2500000000000000  0.5005610839504676
  0.2500000000000000  0.7500000000000000  0.0005610839504676
  0.2500000000000000  0.7500000000000000  0.5005610839504676
  0.7500000000000000  0.2500000000000000  0.0005610839504676
  0.7500000000000000  0.2500000000000000  0.5005610839504676
  0.7500000000000000  0.7500000000000000  0.0005610839504676
  0.7500000000000000  0.7500000000000000  0.5005610839504676
  0.1250000000000000  0.1250000000000000  0.1244389160495324
  0.1250000000000000  0.1250000000000000  0.6244389160495324
  0.1250000000000000  0.6250000000000000  0.1244389160495324
  0.1250000000000000  0.6250000000000000  0.6244389160495324
  0.6250000000000000  0.1250000000000000  0.1244389160495324
  0.6250000000000000  0.1250000000000000  0.6244389160495324
  0.6250000000000000  0.6250000000000000  0.1244389160495324
  0.6250000000000000  0.6250000000000000  0.6244389160495324
 
  0.00000000E+00  0.00000000E+00  0.00000000E+00
  0.00000000E+00  0.00000000E+00  0.00000000E+00
  0.00000000E+00  0.00000000E+00  0.00000000E+00
  0.00000000E+00  0.00000000E+00  0.00000000E+00
  0.00000000E+00  0.00000000E+00  0.00000000E+00
  0.00000000E+00  0.00000000E+00  0.00000000E+00
  0.00000000E+00  0.00000000E+00  0.00000000E+00
  0.00000000E+00  0.00000000E+00  0.00000000E+00
  0.00000000E+00  0.00000000E+00  0.00000000E+00
  0.00000000E+00  0.00000000E+00  0.00000000E+00
  0.00000000E+00  0.00000000E+00  0.00000000E+00
  0.00000000E+00  0.00000000E+00  0.00000000E+00
  0.00000000E+00  0.00000000E+00  0.00000000E+00
  0.00000000E+00  0.00000000E+00  0.00000000E+00
  0.00000000E+00  0.00000000E+00  0.00000000E+00
  0.00000000E+00  0.00000000E+00  0.00000000E+00
  0.00000000E+00  0.00000000E+00  0.00000000E+00
  0.00000000E+00  0.00000000E+00  0.00000000E+00
  0.00000000E+00  0.00000000E+00  0.00000000E+00
  0.00000000E+00  0.00000000E+00  0.00000000E+00
  0.00000000E+00  0.00000000E+00  0.00000000E+00
  0.00000000E+00  0.00000000E+00  0.00000000E+00
  0.00000000E+00  0.00000000E+00  0.00000000E+00
  0.00000000E+00  0.00000000E+00  0.00000000E+00
  0.00000000E+00  0.00000000E+00  0.00000000E+00
  0.00000000E+00  0.00000000E+00  0.00000000E+00
  0.00000000E+00  0.00000000E+00  0.00000000E+00
  0.00000000E+00  0.00000000E+00  0.00000000E+00
  0.00000000E+00  0.00000000E+00  0.00000000E+00
  0.00000000E+00  0.00000000E+00  0.00000000E+00
  0.00000000E+00  0.00000000E+00  0.00000000E+00
  0.00000000E+00  0.00000000E+00  0.00000000E+00
  0.00000000E+00  0.00000000E+00  0.00000000E+00
  0.00000000E+00  0.00000000E+00  0.00000000E+00
  0.00000000E+00  0.00000000E+00  0.00000000E+00
  0.00000000E+00  0.00000000E+00  0.00000000E+00
  0.00000000E+00  0.00000000E+00  0.00000000E+00
  0.00000000E+00  0.00000000E+00  0.00000000E+00
  0.00000000E+00  0.00000000E+00  0.00000000E+00
  0.00000000E+00  0.00000000E+00  0.00000000E+00
  0.00000000E+00  0.00000000E+00  0.00000000E+00
  0.00000000E+00  0.00000000E+00  0.00000000E+00
  0.00000000E+00  0.00000000E+00  0.00000000E+00
  0.00000000E+00  0.00000000E+00  0.00000000E+00
  0.00000000E+00  0.00000000E+00  0.00000000E+00
  0.00000000E+00  0.00000000E+00  0.00000000E+00
  0.00000000E+00  0.00000000E+00  0.00000000E+00
  0.00000000E+00  0.00000000E+00  0.00000000E+00
  0.00000000E+00  0.00000000E+00  0.00000000E+00
  0.00000000E+00  0.00000000E+00  0.00000000E+00
  0.00000000E+00  0.00000000E+00  0.00000000E+00
  0.00000000E+00  0.00000000E+00  0.00000000E+00
  0.00000000E+00  0.00000000E+00  0.00000000E+00
  0.00000000E+00  0.00000000E+00  0.00000000E+00
  0.00000000E+00  0.00000000E+00  0.00000000E+00
  0.00000000E+00  0.00000000E+00  0.00000000E+00
  0.00000000E+00  0.00000000E+00  0.00000000E+00
  0.00000000E+00  0.00000000E+00  0.00000000E+00
  0.00000000E+00  0.00000000E+00  0.00000000E+00
  0.00000000E+00  0.00000000E+00  0.00000000E+00
  0.00000000E+00  0.00000000E+00  0.00000000E+00
  0.00000000E+00  0.00000000E+00  0.00000000E+00
  0.00000000E+00  0.00000000E+00  0.00000000E+00
  0.00000000E+00  0.00000000E+00  0.00000000E+00
