Si8                                     
   1.00000014768065     
    10.7452620000000003    0.0531940000000000    0.0000000000000000
     0.0531940000000000   10.6388739999999995    0.0000000000000000
     0.0000000000000000    0.0000000000000000   10.6388739999999995
   Si
    64
Direct
  0.0000000000000000  0.0000000000000000  0.0003960119872076
  0.0000000000000000  0.0000000000000000  0.5003960119872075
  0.0000000000000000  0.5000000000000000  0.0003960119872076
  0.0000000000000000  0.5000000000000000  0.5003960119872075
  0.5000000000000000  0.0000000000000000  0.0003960119872076
  0.5000000000000000  0.0000000000000000  0.5003960119872075
  0.5000000000000000  0.5000000000000000  0.0003960119872076
  0.5000000000000000  0.5000000000000000  0.5003960119872075
  0.3750000000000000  0.3750000000000000  0.1246039880127924
  0.3750000000000000  0.3750000000000000  0.6246039880127925
  0.3750000000000000  0.8750000000000000  0.1246039880127924
  0.3750000000000000  0.8750000000000000  0.6246039880127925
  0.8750000000000000  0.3750000000000000  0.1246039880127924
  0.8750000000000000  0.3750000000000000  0.6246039880127925
  0.8750000000000000  0.8750000000000000  0.1246039880127924
  0.8750000000000000  0.8750000000000000  0.6246039880127925
  0.0000000000000000  0.2500000000000000  0.2503960119872076
  0.0000000000000000  0.2500000000000000  0.7503960119872075
  0.0000000000000000  0.7500000000000000  0.2503960119872076
  0.0000000000000000  0.7500000000000000  0.7503960119872075
  0.5000000000000000  0.2500000000000000  0.2503960119872076
  0.5000000000000000  0.2500000000000000  0.7503960119872075
  0.5000000000000000  0.7500000000000000  0.2503960119872076
  0.5000000000000000  0.7500000000000000  0.7503960119872075
  0.3750000000000000  0.1250000000000000  0.3746039880127924
  0.3750000000000000  0.1250000000000000  0.8746039880127925
  0.3750000000000000  0.6250000000000000  0.3746039880127924
  0.3750000000000000  0.6250000000000000  0.8746039880127925
  0.8750000000000000  0.1250000000000000  0.3746039880127924
  0.8750000000000000  0.1250000000000000  0.8746039880127925
  0.8750000000000000  0.6250000000000000  0.3746039880127924
  0.8750000000000000  0.6250000000000000  0.8746039880127925
  0.2500000000000000  0.0000000000000000  0.2503960119872076
  0.2500000000000000  0.0000000000000000  0.7503960119872075
  0.2500000000000000  0.5000000000000000  0.2503960119872076
  0.2500000000000000  0.5000000000000000  0.7503960119872075
  0.7500000000000000  0.0000000000000000  0.2503960119872076
  0.7500000000000000  0.0000000000000000  0.7503960119872075
  0.7500000000000000  0.5000000000000000  0.2503960119872076
  0.7500000000000000  0.5000000000000000  0.7503960119872075
  0.1250000000000000  0.3750000000000000  0.3746039880127924
  0.1250000000000000  0.3750000000000000  0.8746039880127925
  0.1250000000000000  0.8750000000000000  0.3746039880127924
  0.1250000000000000  0.8750000000000000  0.8746039880127925
  0.6250000000000000  0.3750000000000000  0.3746039880127924
  0.6250000000000000  0.3750000000000000  0.8746039880127925
  0.6250000000000000  0.8750000000000000  0.3746039880127924
  0.6250000000000000  0.8750000000000000  0.8746039880127925
  0.2500000000000000  0.2500000000000000  0.0003960119872076
  0.2500000000000000  0.2500000000000000  0.5003960119872075
  0.2500000000000000  0.7500000000000000  0.0003960119872076
  0.2500000000000000  0.7500000000000000  0.5003960119872075
  0.7500000000000000  0.2500000000000000  0.0003960119872076
  0.7500000000000000  0.2500000000000000  0.5003960119872075
  0.7500000000000000  0.7500000000000000  0.0003960119872076
  0.7500000000000000  0.7500000000000000  0.5003960119872075
  0.1250000000000000  0.1250000000000000  0.1246039880127924
  0.1250000000000000  0.1250000000000000  0.6246039880127925
  0.1250000000000000  0.6250000000000000  0.1246039880127924
  0.1250000000000000  0.6250000000000000  0.6246039880127925
  0.6250000000000000  0.1250000000000000  0.1246039880127924
  0.6250000000000000  0.1250000000000000  0.6246039880127925
  0.6250000000000000  0.6250000000000000  0.1246039880127924
  0.6250000000000000  0.6250000000000000  0.6246039880127925
 
  0.00000000E+00  0.00000000E+00  0.00000000E+00
  0.00000000E+00  0.00000000E+00  0.00000000E+00
  0.00000000E+00  0.00000000E+00  0.00000000E+00
  0.00000000E+00  0.00000000E+00  0.00000000E+00
  0.00000000E+00  0.00000000E+00  0.00000000E+00
  0.00000000E+00  0.00000000E+00  0.00000000E+00
  0.00000000E+00  0.00000000E+00  0.00000000E+00
  0.00000000E+00  0.00000000E+00  0.00000000E+00
  0.00000000E+00  0.00000000E+00  0.00000000E+00
  0.00000000E+00  0.00000000E+00  0.00000000E+00
  0.00000000E+00  0.00000000E+00  0.00000000E+00
  0.00000000E+00  0.00000000E+00  0.00000000E+00
  0.00000000E+00  0.00000000E+00  0.00000000E+00
  0.00000000E+00  0.00000000E+00  0.00000000E+00
  0.00000000E+00  0.00000000E+00  0.00000000E+00
  0.00000000E+00  0.00000000E+00  0.00000000E+00
  0.00000000E+00  0.00000000E+00  0.00000000E+00
  0.00000000E+00  0.00000000E+00  0.00000000E+00
  0.00000000E+00  0.00000000E+00  0.00000000E+00
  0.00000000E+00  0.00000000E+00  0.00000000E+00
  0.00000000E+00  0.00000000E+00  0.00000000E+00
  0.00000000E+00  0.00000000E+00  0.00000000E+00
  0.00000000E+00  0.00000000E+00  0.00000000E+00
  0.00000000E+00  0.00000000E+00  0.00000000E+00
  0.00000000E+00  0.00000000E+00  0.00000000E+00
  0.00000000E+00  0.00000000E+00  0.00000000E+00
  0.00000000E+00  0.00000000E+00  0.00000000E+00
  0.00000000E+00  0.00000000E+00  0.00000000E+00
  0.00000000E+00  0.00000000E+00  0.00000000E+00
  0.00000000E+00  0.00000000E+00  0.00000000E+00
  0.00000000E+00  0.00000000E+00  0.00000000E+00
  0.00000000E+00  0.00000000E+00  0.00000000E+00
  0.00000000E+00  0.00000000E+00  0.00000000E+00
  0.00000000E+00  0.00000000E+00  0.00000000E+00
  0.00000000E+00  0.00000000E+00  0.00000000E+00
  0.00000000E+00  0.00000000E+00  0.00000000E+00
  0.00000000E+00  0.00000000E+00  0.00000000E+00
  0.00000000E+00  0.00000000E+00  0.00000000E+00
  0.00000000E+00  0.00000000E+00  0.00000000E+00
  0.00000000E+00  0.00000000E+00  0.00000000E+00
  0.00000000E+00  0.00000000E+00  0.00000000E+00
  0.00000000E+00  0.00000000E+00  0.00000000E+00
  0.00000000E+00  0.00000000E+00  0.00000000E+00
  0.00000000E+00  0.00000000E+00  0.00000000E+00
  0.00000000E+00  0.00000000E+00  0.00000000E+00
  0.00000000E+00  0.00000000E+00  0.00000000E+00
  0.00000000E+00  0.00000000E+00  0.00000000E+00
  0.00000000E+00  0.00000000E+00  0.00000000E+00
  0.00000000E+00  0.00000000E+00  0.00000000E+00
  0.00000000E+00  0.00000000E+00  0.00000000E+00
  0.00000000E+00  0.00000000E+00  0.00000000E+00
  0.00000000E+00  0.00000000E+00  0.00000000E+00
  0.00000000E+00  0.00000000E+00  0.00000000E+00
  0.00000000E+00  0.00000000E+00  0.00000000E+00
  0.00000000E+00  0.00000000E+00  0.00000000E+00
  0.00000000E+00  0.00000000E+00  0.00000000E+00
  0.00000000E+00  0.00000000E+00  0.00000000E+00
  0.00000000E+00  0.00000000E+00  0.00000000E+00
  0.00000000E+00  0.00000000E+00  0.00000000E+00
  0.00000000E+00  0.00000000E+00  0.00000000E+00
  0.00000000E+00  0.00000000E+00  0.00000000E+00
  0.00000000E+00  0.00000000E+00  0.00000000E+00
  0.00000000E+00  0.00000000E+00  0.00000000E+00
  0.00000000E+00  0.00000000E+00  0.00000000E+00
