Si8                                     
   1.00000014768065     
    10.8074230000000000    0.0535020000000000    0.0000000000000000
     0.0535020000000000   10.7004190000000001    0.0000000000000000
     0.0000000000000000    0.0000000000000000   10.7004190000000001
   Si
    64
Direct
  0.0000000000000000  0.0000000000000000  0.0003765804985008
  0.0000000000000000  0.0000000000000000  0.5003765804985008
  0.0000000000000000  0.5000000000000000  0.0003765804985008
  0.0000000000000000  0.5000000000000000  0.5003765804985008
  0.5000000000000000  0.0000000000000000  0.0003765804985008
  0.5000000000000000  0.0000000000000000  0.5003765804985008
  0.5000000000000000  0.5000000000000000  0.0003765804985008
  0.5000000000000000  0.5000000000000000  0.5003765804985008
  0.3750000000000000  0.3750000000000000  0.1246234195014992
  0.3750000000000000  0.3750000000000000  0.6246234195014992
  0.3750000000000000  0.8750000000000000  0.1246234195014992
  0.3750000000000000  0.8750000000000000  0.6246234195014992
  0.8750000000000000  0.3750000000000000  0.1246234195014992
  0.8750000000000000  0.3750000000000000  0.6246234195014992
  0.8750000000000000  0.8750000000000000  0.1246234195014992
  0.8750000000000000  0.8750000000000000  0.6246234195014992
  0.0000000000000000  0.2500000000000000  0.2503765804985008
  0.0000000000000000  0.2500000000000000  0.7503765804985008
  0.0000000000000000  0.7500000000000000  0.2503765804985008
  0.0000000000000000  0.7500000000000000  0.7503765804985008
  0.5000000000000000  0.2500000000000000  0.2503765804985008
  0.5000000000000000  0.2500000000000000  0.7503765804985008
  0.5000000000000000  0.7500000000000000  0.2503765804985008
  0.5000000000000000  0.7500000000000000  0.7503765804985008
  0.3750000000000000  0.1250000000000000  0.3746234195014992
  0.3750000000000000  0.1250000000000000  0.8746234195014992
  0.3750000000000000  0.6250000000000000  0.3746234195014992
  0.3750000000000000  0.6250000000000000  0.8746234195014992
  0.8750000000000000  0.1250000000000000  0.3746234195014992
  0.8750000000000000  0.1250000000000000  0.8746234195014992
  0.8750000000000000  0.6250000000000000  0.3746234195014992
  0.8750000000000000  0.6250000000000000  0.8746234195014992
  0.2500000000000000  0.0000000000000000  0.2503765804985008
  0.2500000000000000  0.0000000000000000  0.7503765804985008
  0.2500000000000000  0.5000000000000000  0.2503765804985008
  0.2500000000000000  0.5000000000000000  0.7503765804985008
  0.7500000000000000  0.0000000000000000  0.2503765804985008
  0.7500000000000000  0.0000000000000000  0.7503765804985008
  0.7500000000000000  0.5000000000000000  0.2503765804985008
  0.7500000000000000  0.5000000000000000  0.7503765804985008
  0.1250000000000000  0.3750000000000000  0.3746234195014992
  0.1250000000000000  0.3750000000000000  0.8746234195014992
  0.1250000000000000  0.8750000000000000  0.3746234195014992
  0.1250000000000000  0.8750000000000000  0.8746234195014992
  0.6250000000000000  0.3750000000000000  0.3746234195014992
  0.6250000000000000  0.3750000000000000  0.8746234195014992
  0.6250000000000000  0.8750000000000000  0.3746234195014992
  0.6250000000000000  0.8750000000000000  0.8746234195014992
  0.2500000000000000  0.2500000000000000  0.0003765804985008
  0.2500000000000000  0.2500000000000000  0.5003765804985008
  0.2500000000000000  0.7500000000000000  0.0003765804985008
  0.2500000000000000  0.7500000000000000  0.5003765804985008
  0.7500000000000000  0.2500000000000000  0.0003765804985008
  0.7500000000000000  0.2500000000000000  0.5003765804985008
  0.7500000000000000  0.7500000000000000  0.0003765804985008
  0.7500000000000000  0.7500000000000000  0.5003765804985008
  0.1250000000000000  0.1250000000000000  0.1246234195014992
  0.1250000000000000  0.1250000000000000  0.6246234195014992
  0.1250000000000000  0.6250000000000000  0.1246234195014992
  0.1250000000000000  0.6250000000000000  0.6246234195014992
  0.6250000000000000  0.1250000000000000  0.1246234195014992
  0.6250000000000000  0.1250000000000000  0.6246234195014992
  0.6250000000000000  0.6250000000000000  0.1246234195014992
  0.6250000000000000  0.6250000000000000  0.6246234195014992
 
  0.00000000E+00  0.00000000E+00  0.00000000E+00
  0.00000000E+00  0.00000000E+00  0.00000000E+00
  0.00000000E+00  0.00000000E+00  0.00000000E+00
  0.00000000E+00  0.00000000E+00  0.00000000E+00
  0.00000000E+00  0.00000000E+00  0.00000000E+00
  0.00000000E+00  0.00000000E+00  0.00000000E+00
  0.00000000E+00  0.00000000E+00  0.00000000E+00
  0.00000000E+00  0.00000000E+00  0.00000000E+00
  0.00000000E+00  0.00000000E+00  0.00000000E+00
  0.00000000E+00  0.00000000E+00  0.00000000E+00
  0.00000000E+00  0.00000000E+00  0.00000000E+00
  0.00000000E+00  0.00000000E+00  0.00000000E+00
  0.00000000E+00  0.00000000E+00  0.00000000E+00
  0.00000000E+00  0.00000000E+00  0.00000000E+00
  0.00000000E+00  0.00000000E+00  0.00000000E+00
  0.00000000E+00  0.00000000E+00  0.00000000E+00
  0.00000000E+00  0.00000000E+00  0.00000000E+00
  0.00000000E+00  0.00000000E+00  0.00000000E+00
  0.00000000E+00  0.00000000E+00  0.00000000E+00
  0.00000000E+00  0.00000000E+00  0.00000000E+00
  0.00000000E+00  0.00000000E+00  0.00000000E+00
  0.00000000E+00  0.00000000E+00  0.00000000E+00
  0.00000000E+00  0.00000000E+00  0.00000000E+00
  0.00000000E+00  0.00000000E+00  0.00000000E+00
  0.00000000E+00  0.00000000E+00  0.00000000E+00
  0.00000000E+00  0.00000000E+00  0.00000000E+00
  0.00000000E+00  0.00000000E+00  0.00000000E+00
  0.00000000E+00  0.00000000E+00  0.00000000E+00
  0.00000000E+00  0.00000000E+00  0.00000000E+00
  0.00000000E+00  0.00000000E+00  0.00000000E+00
  0.00000000E+00  0.00000000E+00  0.00000000E+00
  0.00000000E+00  0.00000000E+00  0.00000000E+00
  0.00000000E+00  0.00000000E+00  0.00000000E+00
  0.00000000E+00  0.00000000E+00  0.00000000E+00
  0.00000000E+00  0.00000000E+00  0.00000000E+00
  0.00000000E+00  0.00000000E+00  0.00000000E+00
  0.00000000E+00  0.00000000E+00  0.00000000E+00
  0.00000000E+00  0.00000000E+00  0.00000000E+00
  0.00000000E+00  0.00000000E+00  0.00000000E+00
  0.00000000E+00  0.00000000E+00  0.00000000E+00
  0.00000000E+00  0.00000000E+00  0.00000000E+00
  0.00000000E+00  0.00000000E+00  0.00000000E+00
  0.00000000E+00  0.00000000E+00  0.00000000E+00
  0.00000000E+00  0.00000000E+00  0.00000000E+00
  0.00000000E+00  0.00000000E+00  0.00000000E+00
  0.00000000E+00  0.00000000E+00  0.00000000E+00
  0.00000000E+00  0.00000000E+00  0.00000000E+00
  0.00000000E+00  0.00000000E+00  0.00000000E+00
  0.00000000E+00  0.00000000E+00  0.00000000E+00
  0.00000000E+00  0.00000000E+00  0.00000000E+00
  0.00000000E+00  0.00000000E+00  0.00000000E+00
  0.00000000E+00  0.00000000E+00  0.00000000E+00
  0.00000000E+00  0.00000000E+00  0.00000000E+00
  0.00000000E+00  0.00000000E+00  0.00000000E+00
  0.00000000E+00  0.00000000E+00  0.00000000E+00
  0.00000000E+00  0.00000000E+00  0.00000000E+00
  0.00000000E+00  0.00000000E+00  0.00000000E+00
  0.00000000E+00  0.00000000E+00  0.00000000E+00
  0.00000000E+00  0.00000000E+00  0.00000000E+00
  0.00000000E+00  0.00000000E+00  0.00000000E+00
  0.00000000E+00  0.00000000E+00  0.00000000E+00
  0.00000000E+00  0.00000000E+00  0.00000000E+00
  0.00000000E+00  0.00000000E+00  0.00000000E+00
  0.00000000E+00  0.00000000E+00  0.00000000E+00
