Si8                                     
   1.00000014768065     
    11.0505980000000008    0.1083390000000000    0.0000000000000000
     0.1083390000000000   10.8339189999999999    0.0000000000000000
     0.0000000000000000    0.0000000000000000   10.8339189999999999
   Si
    64
Direct
  0.0000000000000000  0.0000000000000000  0.0006619164410613
  0.0000000000000000  0.0000000000000000  0.5006619164410614
  0.0000000000000000  0.5000000000000000  0.0006619164410613
  0.0000000000000000  0.5000000000000000  0.5006619164410614
  0.5000000000000000  0.0000000000000000  0.0006619164410613
  0.5000000000000000  0.0000000000000000  0.5006619164410614
  0.5000000000000000  0.5000000000000000  0.0006619164410613
  0.5000000000000000  0.5000000000000000  0.5006619164410614
  0.3750000000000000  0.3750000000000000  0.1243380835589387
  0.3750000000000000  0.3750000000000000  0.6243380835589386
  0.3750000000000000  0.8750000000000000  0.1243380835589387
  0.3750000000000000  0.8750000000000000  0.6243380835589386
  0.8750000000000000  0.3750000000000000  0.1243380835589387
  0.8750000000000000  0.3750000000000000  0.6243380835589386
  0.8750000000000000  0.8750000000000000  0.1243380835589387
  0.8750000000000000  0.8750000000000000  0.6243380835589386
  0.0000000000000000  0.2500000000000000  0.2506619164410613
  0.0000000000000000  0.2500000000000000  0.7506619164410614
  0.0000000000000000  0.7500000000000000  0.2506619164410613
  0.0000000000000000  0.7500000000000000  0.7506619164410614
  0.5000000000000000  0.2500000000000000  0.2506619164410613
  0.5000000000000000  0.2500000000000000  0.7506619164410614
  0.5000000000000000  0.7500000000000000  0.2506619164410613
  0.5000000000000000  0.7500000000000000  0.7506619164410614
  0.3750000000000000  0.1250000000000000  0.3743380835589387
  0.3750000000000000  0.1250000000000000  0.8743380835589386
  0.3750000000000000  0.6250000000000000  0.3743380835589387
  0.3750000000000000  0.6250000000000000  0.8743380835589386
  0.8750000000000000  0.1250000000000000  0.3743380835589387
  0.8750000000000000  0.1250000000000000  0.8743380835589386
  0.8750000000000000  0.6250000000000000  0.3743380835589387
  0.8750000000000000  0.6250000000000000  0.8743380835589386
  0.2500000000000000  0.0000000000000000  0.2506619164410613
  0.2500000000000000  0.0000000000000000  0.7506619164410614
  0.2500000000000000  0.5000000000000000  0.2506619164410613
  0.2500000000000000  0.5000000000000000  0.7506619164410614
  0.7500000000000000  0.0000000000000000  0.2506619164410613
  0.7500000000000000  0.0000000000000000  0.7506619164410614
  0.7500000000000000  0.5000000000000000  0.2506619164410613
  0.7500000000000000  0.5000000000000000  0.7506619164410614
  0.1250000000000000  0.3750000000000000  0.3743380835589387
  0.1250000000000000  0.3750000000000000  0.8743380835589386
  0.1250000000000000  0.8750000000000000  0.3743380835589387
  0.1250000000000000  0.8750000000000000  0.8743380835589386
  0.6250000000000000  0.3750000000000000  0.3743380835589387
  0.6250000000000000  0.3750000000000000  0.8743380835589386
  0.6250000000000000  0.8750000000000000  0.3743380835589387
  0.6250000000000000  0.8750000000000000  0.8743380835589386
  0.2500000000000000  0.2500000000000000  0.0006619164410613
  0.2500000000000000  0.2500000000000000  0.5006619164410614
  0.2500000000000000  0.7500000000000000  0.0006619164410613
  0.2500000000000000  0.7500000000000000  0.5006619164410614
  0.7500000000000000  0.2500000000000000  0.0006619164410613
  0.7500000000000000  0.2500000000000000  0.5006619164410614
  0.7500000000000000  0.7500000000000000  0.0006619164410613
  0.7500000000000000  0.7500000000000000  0.5006619164410614
  0.1250000000000000  0.1250000000000000  0.1243380835589387
  0.1250000000000000  0.1250000000000000  0.6243380835589386
  0.1250000000000000  0.6250000000000000  0.1243380835589387
  0.1250000000000000  0.6250000000000000  0.6243380835589386
  0.6250000000000000  0.1250000000000000  0.1243380835589387
  0.6250000000000000  0.1250000000000000  0.6243380835589386
  0.6250000000000000  0.6250000000000000  0.1243380835589387
  0.6250000000000000  0.6250000000000000  0.6243380835589386
 
  0.00000000E+00  0.00000000E+00  0.00000000E+00
  0.00000000E+00  0.00000000E+00  0.00000000E+00
  0.00000000E+00  0.00000000E+00  0.00000000E+00
  0.00000000E+00  0.00000000E+00  0.00000000E+00
  0.00000000E+00  0.00000000E+00  0.00000000E+00
  0.00000000E+00  0.00000000E+00  0.00000000E+00
  0.00000000E+00  0.00000000E+00  0.00000000E+00
  0.00000000E+00  0.00000000E+00  0.00000000E+00
  0.00000000E+00  0.00000000E+00  0.00000000E+00
  0.00000000E+00  0.00000000E+00  0.00000000E+00
  0.00000000E+00  0.00000000E+00  0.00000000E+00
  0.00000000E+00  0.00000000E+00  0.00000000E+00
  0.00000000E+00  0.00000000E+00  0.00000000E+00
  0.00000000E+00  0.00000000E+00  0.00000000E+00
  0.00000000E+00  0.00000000E+00  0.00000000E+00
  0.00000000E+00  0.00000000E+00  0.00000000E+00
  0.00000000E+00  0.00000000E+00  0.00000000E+00
  0.00000000E+00  0.00000000E+00  0.00000000E+00
  0.00000000E+00  0.00000000E+00  0.00000000E+00
  0.00000000E+00  0.00000000E+00  0.00000000E+00
  0.00000000E+00  0.00000000E+00  0.00000000E+00
  0.00000000E+00  0.00000000E+00  0.00000000E+00
  0.00000000E+00  0.00000000E+00  0.00000000E+00
  0.00000000E+00  0.00000000E+00  0.00000000E+00
  0.00000000E+00  0.00000000E+00  0.00000000E+00
  0.00000000E+00  0.00000000E+00  0.00000000E+00
  0.00000000E+00  0.00000000E+00  0.00000000E+00
  0.00000000E+00  0.00000000E+00  0.00000000E+00
  0.00000000E+00  0.00000000E+00  0.00000000E+00
  0.00000000E+00  0.00000000E+00  0.00000000E+00
  0.00000000E+00  0.00000000E+00  0.00000000E+00
  0.00000000E+00  0.00000000E+00  0.00000000E+00
  0.00000000E+00  0.00000000E+00  0.00000000E+00
  0.00000000E+00  0.00000000E+00  0.00000000E+00
  0.00000000E+00  0.00000000E+00  0.00000000E+00
  0.00000000E+00  0.00000000E+00  0.00000000E+00
  0.00000000E+00  0.00000000E+00  0.00000000E+00
  0.00000000E+00  0.00000000E+00  0.00000000E+00
  0.00000000E+00  0.00000000E+00  0.00000000E+00
  0.00000000E+00  0.00000000E+00  0.00000000E+00
  0.00000000E+00  0.00000000E+00  0.00000000E+00
  0.00000000E+00  0.00000000E+00  0.00000000E+00
  0.00000000E+00  0.00000000E+00  0.00000000E+00
  0.00000000E+00  0.00000000E+00  0.00000000E+00
  0.00000000E+00  0.00000000E+00  0.00000000E+00
  0.00000000E+00  0.00000000E+00  0.00000000E+00
  0.00000000E+00  0.00000000E+00  0.00000000E+00
  0.00000000E+00  0.00000000E+00  0.00000000E+00
  0.00000000E+00  0.00000000E+00  0.00000000E+00
  0.00000000E+00  0.00000000E+00  0.00000000E+00
  0.00000000E+00  0.00000000E+00  0.00000000E+00
  0.00000000E+00  0.00000000E+00  0.00000000E+00
  0.00000000E+00  0.00000000E+00  0.00000000E+00
  0.00000000E+00  0.00000000E+00  0.00000000E+00
  0.00000000E+00  0.00000000E+00  0.00000000E+00
  0.00000000E+00  0.00000000E+00  0.00000000E+00
  0.00000000E+00  0.00000000E+00  0.00000000E+00
  0.00000000E+00  0.00000000E+00  0.00000000E+00
  0.00000000E+00  0.00000000E+00  0.00000000E+00
  0.00000000E+00  0.00000000E+00  0.00000000E+00
  0.00000000E+00  0.00000000E+00  0.00000000E+00
  0.00000000E+00  0.00000000E+00  0.00000000E+00
  0.00000000E+00  0.00000000E+00  0.00000000E+00
  0.00000000E+00  0.00000000E+00  0.00000000E+00
