Si8                                     
   1.00000014768065     
    10.5856790000000007   -0.0265970000000000    0.0000000000000000
    -0.0265970000000000   10.6388739999999995    0.0000000000000000
     0.0000000000000000    0.0000000000000000   10.6388739999999995
   Si
    64
Direct
  0.0000000000000000  0.0000000000000000  0.9997971860055650
  0.0000000000000000  0.0000000000000000  0.4997971860055651
  0.0000000000000000  0.5000000000000000  0.9997971860055650
  0.0000000000000000  0.5000000000000000  0.4997971860055651
  0.5000000000000000  0.0000000000000000  0.9997971860055650
  0.5000000000000000  0.0000000000000000  0.4997971860055651
  0.5000000000000000  0.5000000000000000  0.9997971860055650
  0.5000000000000000  0.5000000000000000  0.4997971860055651
  0.3750000000000000  0.3750000000000000  0.1252028139944349
  0.3750000000000000  0.3750000000000000  0.6252028139944350
  0.3750000000000000  0.8750000000000000  0.1252028139944349
  0.3750000000000000  0.8750000000000000  0.6252028139944350
  0.8750000000000000  0.3750000000000000  0.1252028139944349
  0.8750000000000000  0.3750000000000000  0.6252028139944350
  0.8750000000000000  0.8750000000000000  0.1252028139944349
  0.8750000000000000  0.8750000000000000  0.6252028139944350
  0.0000000000000000  0.2500000000000000  0.2497971860055651
  0.0000000000000000  0.2500000000000000  0.7497971860055650
  0.0000000000000000  0.7500000000000000  0.2497971860055651
  0.0000000000000000  0.7500000000000000  0.7497971860055650
  0.5000000000000000  0.2500000000000000  0.2497971860055651
  0.5000000000000000  0.2500000000000000  0.7497971860055650
  0.5000000000000000  0.7500000000000000  0.2497971860055651
  0.5000000000000000  0.7500000000000000  0.7497971860055650
  0.3750000000000000  0.1250000000000000  0.3752028139944349
  0.3750000000000000  0.1250000000000000  0.8752028139944350
  0.3750000000000000  0.6250000000000000  0.3752028139944349
  0.3750000000000000  0.6250000000000000  0.8752028139944350
  0.8750000000000000  0.1250000000000000  0.3752028139944349
  0.8750000000000000  0.1250000000000000  0.8752028139944350
  0.8750000000000000  0.6250000000000000  0.3752028139944349
  0.8750000000000000  0.6250000000000000  0.8752028139944350
  0.2500000000000000  0.0000000000000000  0.2497971860055651
  0.2500000000000000  0.0000000000000000  0.7497971860055650
  0.2500000000000000  0.5000000000000000  0.2497971860055651
  0.2500000000000000  0.5000000000000000  0.7497971860055650
  0.7500000000000000  0.0000000000000000  0.2497971860055651
  0.7500000000000000  0.0000000000000000  0.7497971860055650
  0.7500000000000000  0.5000000000000000  0.2497971860055651
  0.7500000000000000  0.5000000000000000  0.7497971860055650
  0.1250000000000000  0.3750000000000000  0.3752028139944349
  0.1250000000000000  0.3750000000000000  0.8752028139944350
  0.1250000000000000  0.8750000000000000  0.3752028139944349
  0.1250000000000000  0.8750000000000000  0.8752028139944350
  0.6250000000000000  0.3750000000000000  0.3752028139944349
  0.6250000000000000  0.3750000000000000  0.8752028139944350
  0.6250000000000000  0.8750000000000000  0.3752028139944349
  0.6250000000000000  0.8750000000000000  0.8752028139944350
  0.2500000000000000  0.2500000000000000  0.9997971860055650
  0.2500000000000000  0.2500000000000000  0.4997971860055651
  0.2500000000000000  0.7500000000000000  0.9997971860055650
  0.2500000000000000  0.7500000000000000  0.4997971860055651
  0.7500000000000000  0.2500000000000000  0.9997971860055650
  0.7500000000000000  0.2500000000000000  0.4997971860055651
  0.7500000000000000  0.7500000000000000  0.9997971860055650
  0.7500000000000000  0.7500000000000000  0.4997971860055651
  0.1250000000000000  0.1250000000000000  0.1252028139944349
  0.1250000000000000  0.1250000000000000  0.6252028139944350
  0.1250000000000000  0.6250000000000000  0.1252028139944349
  0.1250000000000000  0.6250000000000000  0.6252028139944350
  0.6250000000000000  0.1250000000000000  0.1252028139944349
  0.6250000000000000  0.1250000000000000  0.6252028139944350
  0.6250000000000000  0.6250000000000000  0.1252028139944349
  0.6250000000000000  0.6250000000000000  0.6252028139944350
 
  0.00000000E+00  0.00000000E+00  0.00000000E+00
  0.00000000E+00  0.00000000E+00  0.00000000E+00
  0.00000000E+00  0.00000000E+00  0.00000000E+00
  0.00000000E+00  0.00000000E+00  0.00000000E+00
  0.00000000E+00  0.00000000E+00  0.00000000E+00
  0.00000000E+00  0.00000000E+00  0.00000000E+00
  0.00000000E+00  0.00000000E+00  0.00000000E+00
  0.00000000E+00  0.00000000E+00  0.00000000E+00
  0.00000000E+00  0.00000000E+00  0.00000000E+00
  0.00000000E+00  0.00000000E+00  0.00000000E+00
  0.00000000E+00  0.00000000E+00  0.00000000E+00
  0.00000000E+00  0.00000000E+00  0.00000000E+00
  0.00000000E+00  0.00000000E+00  0.00000000E+00
  0.00000000E+00  0.00000000E+00  0.00000000E+00
  0.00000000E+00  0.00000000E+00  0.00000000E+00
  0.00000000E+00  0.00000000E+00  0.00000000E+00
  0.00000000E+00  0.00000000E+00  0.00000000E+00
  0.00000000E+00  0.00000000E+00  0.00000000E+00
  0.00000000E+00  0.00000000E+00  0.00000000E+00
  0.00000000E+00  0.00000000E+00  0.00000000E+00
  0.00000000E+00  0.00000000E+00  0.00000000E+00
  0.00000000E+00  0.00000000E+00  0.00000000E+00
  0.00000000E+00  0.00000000E+00  0.00000000E+00
  0.00000000E+00  0.00000000E+00  0.00000000E+00
  0.00000000E+00  0.00000000E+00  0.00000000E+00
  0.00000000E+00  0.00000000E+00  0.00000000E+00
  0.00000000E+00  0.00000000E+00  0.00000000E+00
  0.00000000E+00  0.00000000E+00  0.00000000E+00
  0.00000000E+00  0.00000000E+00  0.00000000E+00
  0.00000000E+00  0.00000000E+00  0.00000000E+00
  0.00000000E+00  0.00000000E+00  0.00000000E+00
  0.00000000E+00  0.00000000E+00  0.00000000E+00
  0.00000000E+00  0.00000000E+00  0.00000000E+00
  0.00000000E+00  0.00000000E+00  0.00000000E+00
  0.00000000E+00  0.00000000E+00  0.00000000E+00
  0.00000000E+00  0.00000000E+00  0.00000000E+00
  0.00000000E+00  0.00000000E+00  0.00000000E+00
  0.00000000E+00  0.00000000E+00  0.00000000E+00
  0.00000000E+00  0.00000000E+00  0.00000000E+00
  0.00000000E+00  0.00000000E+00  0.00000000E+00
  0.00000000E+00  0.00000000E+00  0.00000000E+00
  0.00000000E+00  0.00000000E+00  0.00000000E+00
  0.00000000E+00  0.00000000E+00  0.00000000E+00
  0.00000000E+00  0.00000000E+00  0.00000000E+00
  0.00000000E+00  0.00000000E+00  0.00000000E+00
  0.00000000E+00  0.00000000E+00  0.00000000E+00
  0.00000000E+00  0.00000000E+00  0.00000000E+00
  0.00000000E+00  0.00000000E+00  0.00000000E+00
  0.00000000E+00  0.00000000E+00  0.00000000E+00
  0.00000000E+00  0.00000000E+00  0.00000000E+00
  0.00000000E+00  0.00000000E+00  0.00000000E+00
  0.00000000E+00  0.00000000E+00  0.00000000E+00
  0.00000000E+00  0.00000000E+00  0.00000000E+00
  0.00000000E+00  0.00000000E+00  0.00000000E+00
  0.00000000E+00  0.00000000E+00  0.00000000E+00
  0.00000000E+00  0.00000000E+00  0.00000000E+00
  0.00000000E+00  0.00000000E+00  0.00000000E+00
  0.00000000E+00  0.00000000E+00  0.00000000E+00
  0.00000000E+00  0.00000000E+00  0.00000000E+00
  0.00000000E+00  0.00000000E+00  0.00000000E+00
  0.00000000E+00  0.00000000E+00  0.00000000E+00
  0.00000000E+00  0.00000000E+00  0.00000000E+00
  0.00000000E+00  0.00000000E+00  0.00000000E+00
  0.00000000E+00  0.00000000E+00  0.00000000E+00
