Si8                                     
   1.00000014768065     
    10.4792900000000007   -0.0797920000000000    0.0000000000000000
    -0.0797920000000000   10.6388739999999995    0.0000000000000000
     0.0000000000000000    0.0000000000000000   10.6388739999999995
   Si
    64
Direct
  0.0000000000000000  0.0000000000000000  0.9993578332094890
  0.0000000000000000  0.0000000000000000  0.4993578332094890
  0.0000000000000000  0.5000000000000000  0.9993578332094890
  0.0000000000000000  0.5000000000000000  0.4993578332094890
  0.5000000000000000  0.0000000000000000  0.9993578332094890
  0.5000000000000000  0.0000000000000000  0.4993578332094890
  0.5000000000000000  0.5000000000000000  0.9993578332094890
  0.5000000000000000  0.5000000000000000  0.4993578332094890
  0.3750000000000000  0.3750000000000000  0.1256421667905110
  0.3750000000000000  0.3750000000000000  0.6256421667905110
  0.3750000000000000  0.8750000000000000  0.1256421667905110
  0.3750000000000000  0.8750000000000000  0.6256421667905110
  0.8750000000000000  0.3750000000000000  0.1256421667905110
  0.8750000000000000  0.3750000000000000  0.6256421667905110
  0.8750000000000000  0.8750000000000000  0.1256421667905110
  0.8750000000000000  0.8750000000000000  0.6256421667905110
  0.0000000000000000  0.2500000000000000  0.2493578332094890
  0.0000000000000000  0.2500000000000000  0.7493578332094890
  0.0000000000000000  0.7500000000000000  0.2493578332094890
  0.0000000000000000  0.7500000000000000  0.7493578332094890
  0.5000000000000000  0.2500000000000000  0.2493578332094890
  0.5000000000000000  0.2500000000000000  0.7493578332094890
  0.5000000000000000  0.7500000000000000  0.2493578332094890
  0.5000000000000000  0.7500000000000000  0.7493578332094890
  0.3750000000000000  0.1250000000000000  0.3756421667905110
  0.3750000000000000  0.1250000000000000  0.8756421667905110
  0.3750000000000000  0.6250000000000000  0.3756421667905110
  0.3750000000000000  0.6250000000000000  0.8756421667905110
  0.8750000000000000  0.1250000000000000  0.3756421667905110
  0.8750000000000000  0.1250000000000000  0.8756421667905110
  0.8750000000000000  0.6250000000000000  0.3756421667905110
  0.8750000000000000  0.6250000000000000  0.8756421667905110
  0.2500000000000000  0.0000000000000000  0.2493578332094890
  0.2500000000000000  0.0000000000000000  0.7493578332094890
  0.2500000000000000  0.5000000000000000  0.2493578332094890
  0.2500000000000000  0.5000000000000000  0.7493578332094890
  0.7500000000000000  0.0000000000000000  0.2493578332094890
  0.7500000000000000  0.0000000000000000  0.7493578332094890
  0.7500000000000000  0.5000000000000000  0.2493578332094890
  0.7500000000000000  0.5000000000000000  0.7493578332094890
  0.1250000000000000  0.3750000000000000  0.3756421667905110
  0.1250000000000000  0.3750000000000000  0.8756421667905110
  0.1250000000000000  0.8750000000000000  0.3756421667905110
  0.1250000000000000  0.8750000000000000  0.8756421667905110
  0.6250000000000000  0.3750000000000000  0.3756421667905110
  0.6250000000000000  0.3750000000000000  0.8756421667905110
  0.6250000000000000  0.8750000000000000  0.3756421667905110
  0.6250000000000000  0.8750000000000000  0.8756421667905110
  0.2500000000000000  0.2500000000000000  0.9993578332094890
  0.2500000000000000  0.2500000000000000  0.4993578332094890
  0.2500000000000000  0.7500000000000000  0.9993578332094890
  0.2500000000000000  0.7500000000000000  0.4993578332094890
  0.7500000000000000  0.2500000000000000  0.9993578332094890
  0.7500000000000000  0.2500000000000000  0.4993578332094890
  0.7500000000000000  0.7500000000000000  0.9993578332094890
  0.7500000000000000  0.7500000000000000  0.4993578332094890
  0.1250000000000000  0.1250000000000000  0.1256421667905110
  0.1250000000000000  0.1250000000000000  0.6256421667905110
  0.1250000000000000  0.6250000000000000  0.1256421667905110
  0.1250000000000000  0.6250000000000000  0.6256421667905110
  0.6250000000000000  0.1250000000000000  0.1256421667905110
  0.6250000000000000  0.1250000000000000  0.6256421667905110
  0.6250000000000000  0.6250000000000000  0.1256421667905110
  0.6250000000000000  0.6250000000000000  0.6256421667905110
 
  0.00000000E+00  0.00000000E+00  0.00000000E+00
  0.00000000E+00  0.00000000E+00  0.00000000E+00
  0.00000000E+00  0.00000000E+00  0.00000000E+00
  0.00000000E+00  0.00000000E+00  0.00000000E+00
  0.00000000E+00  0.00000000E+00  0.00000000E+00
  0.00000000E+00  0.00000000E+00  0.00000000E+00
  0.00000000E+00  0.00000000E+00  0.00000000E+00
  0.00000000E+00  0.00000000E+00  0.00000000E+00
  0.00000000E+00  0.00000000E+00  0.00000000E+00
  0.00000000E+00  0.00000000E+00  0.00000000E+00
  0.00000000E+00  0.00000000E+00  0.00000000E+00
  0.00000000E+00  0.00000000E+00  0.00000000E+00
  0.00000000E+00  0.00000000E+00  0.00000000E+00
  0.00000000E+00  0.00000000E+00  0.00000000E+00
  0.00000000E+00  0.00000000E+00  0.00000000E+00
  0.00000000E+00  0.00000000E+00  0.00000000E+00
  0.00000000E+00  0.00000000E+00  0.00000000E+00
  0.00000000E+00  0.00000000E+00  0.00000000E+00
  0.00000000E+00  0.00000000E+00  0.00000000E+00
  0.00000000E+00  0.00000000E+00  0.00000000E+00
  0.00000000E+00  0.00000000E+00  0.00000000E+00
  0.00000000E+00  0.00000000E+00  0.00000000E+00
  0.00000000E+00  0.00000000E+00  0.00000000E+00
  0.00000000E+00  0.00000000E+00  0.00000000E+00
  0.00000000E+00  0.00000000E+00  0.00000000E+00
  0.00000000E+00  0.00000000E+00  0.00000000E+00
  0.00000000E+00  0.00000000E+00  0.00000000E+00
  0.00000000E+00  0.00000000E+00  0.00000000E+00
  0.00000000E+00  0.00000000E+00  0.00000000E+00
  0.00000000E+00  0.00000000E+00  0.00000000E+00
  0.00000000E+00  0.00000000E+00  0.00000000E+00
  0.00000000E+00  0.00000000E+00  0.00000000E+00
  0.00000000E+00  0.00000000E+00  0.00000000E+00
  0.00000000E+00  0.00000000E+00  0.00000000E+00
  0.00000000E+00  0.00000000E+00  0.00000000E+00
  0.00000000E+00  0.00000000E+00  0.00000000E+00
  0.00000000E+00  0.00000000E+00  0.00000000E+00
  0.00000000E+00  0.00000000E+00  0.00000000E+00
  0.00000000E+00  0.00000000E+00  0.00000000E+00
  0.00000000E+00  0.00000000E+00  0.00000000E+00
  0.00000000E+00  0.00000000E+00  0.00000000E+00
  0.00000000E+00  0.00000000E+00  0.00000000E+00
  0.00000000E+00  0.00000000E+00  0.00000000E+00
  0.00000000E+00  0.00000000E+00  0.00000000E+00
  0.00000000E+00  0.00000000E+00  0.00000000E+00
  0.00000000E+00  0.00000000E+00  0.00000000E+00
  0.00000000E+00  0.00000000E+00  0.00000000E+00
  0.00000000E+00  0.00000000E+00  0.00000000E+00
  0.00000000E+00  0.00000000E+00  0.00000000E+00
  0.00000000E+00  0.00000000E+00  0.00000000E+00
  0.00000000E+00  0.00000000E+00  0.00000000E+00
  0.00000000E+00  0.00000000E+00  0.00000000E+00
  0.00000000E+00  0.00000000E+00  0.00000000E+00
  0.00000000E+00  0.00000000E+00  0.00000000E+00
  0.00000000E+00  0.00000000E+00  0.00000000E+00
  0.00000000E+00  0.00000000E+00  0.00000000E+00
  0.00000000E+00  0.00000000E+00  0.00000000E+00
  0.00000000E+00  0.00000000E+00  0.00000000E+00
  0.00000000E+00  0.00000000E+00  0.00000000E+00
  0.00000000E+00  0.00000000E+00  0.00000000E+00
  0.00000000E+00  0.00000000E+00  0.00000000E+00
  0.00000000E+00  0.00000000E+00  0.00000000E+00
  0.00000000E+00  0.00000000E+00  0.00000000E+00
  0.00000000E+00  0.00000000E+00  0.00000000E+00
