Si8                                     
   1.00000014768065     
    10.6540370000000006   -0.1087150000000000    0.0000000000000000
    -0.1087150000000000   10.8714659999999999    0.0000000000000000
     0.0000000000000000    0.0000000000000000   10.8714659999999999
   Si
    64
Direct
  0.0000000000000000  0.0000000000000000  0.9992834977587174
  0.0000000000000000  0.0000000000000000  0.4992834977587175
  0.0000000000000000  0.5000000000000000  0.9992834977587174
  0.0000000000000000  0.5000000000000000  0.4992834977587175
  0.5000000000000000  0.0000000000000000  0.9992834977587174
  0.5000000000000000  0.0000000000000000  0.4992834977587175
  0.5000000000000000  0.5000000000000000  0.9992834977587174
  0.5000000000000000  0.5000000000000000  0.4992834977587175
  0.3750000000000000  0.3750000000000000  0.1257165022412825
  0.3750000000000000  0.3750000000000000  0.6257165022412826
  0.3750000000000000  0.8750000000000000  0.1257165022412825
  0.3750000000000000  0.8750000000000000  0.6257165022412826
  0.8750000000000000  0.3750000000000000  0.1257165022412825
  0.8750000000000000  0.3750000000000000  0.6257165022412826
  0.8750000000000000  0.8750000000000000  0.1257165022412825
  0.8750000000000000  0.8750000000000000  0.6257165022412826
  0.0000000000000000  0.2500000000000000  0.2492834977587175
  0.0000000000000000  0.2500000000000000  0.7492834977587174
  0.0000000000000000  0.7500000000000000  0.2492834977587175
  0.0000000000000000  0.7500000000000000  0.7492834977587174
  0.5000000000000000  0.2500000000000000  0.2492834977587175
  0.5000000000000000  0.2500000000000000  0.7492834977587174
  0.5000000000000000  0.7500000000000000  0.2492834977587175
  0.5000000000000000  0.7500000000000000  0.7492834977587174
  0.3750000000000000  0.1250000000000000  0.3757165022412825
  0.3750000000000000  0.1250000000000000  0.8757165022412826
  0.3750000000000000  0.6250000000000000  0.3757165022412825
  0.3750000000000000  0.6250000000000000  0.8757165022412826
  0.8750000000000000  0.1250000000000000  0.3757165022412825
  0.8750000000000000  0.1250000000000000  0.8757165022412826
  0.8750000000000000  0.6250000000000000  0.3757165022412825
  0.8750000000000000  0.6250000000000000  0.8757165022412826
  0.2500000000000000  0.0000000000000000  0.2492834977587175
  0.2500000000000000  0.0000000000000000  0.7492834977587174
  0.2500000000000000  0.5000000000000000  0.2492834977587175
  0.2500000000000000  0.5000000000000000  0.7492834977587174
  0.7500000000000000  0.0000000000000000  0.2492834977587175
  0.7500000000000000  0.0000000000000000  0.7492834977587174
  0.7500000000000000  0.5000000000000000  0.2492834977587175
  0.7500000000000000  0.5000000000000000  0.7492834977587174
  0.1250000000000000  0.3750000000000000  0.3757165022412825
  0.1250000000000000  0.3750000000000000  0.8757165022412826
  0.1250000000000000  0.8750000000000000  0.3757165022412825
  0.1250000000000000  0.8750000000000000  0.8757165022412826
  0.6250000000000000  0.3750000000000000  0.3757165022412825
  0.6250000000000000  0.3750000000000000  0.8757165022412826
  0.6250000000000000  0.8750000000000000  0.3757165022412825
  0.6250000000000000  0.8750000000000000  0.8757165022412826
  0.2500000000000000  0.2500000000000000  0.9992834977587174
  0.2500000000000000  0.2500000000000000  0.4992834977587175
  0.2500000000000000  0.7500000000000000  0.9992834977587174
  0.2500000000000000  0.7500000000000000  0.4992834977587175
  0.7500000000000000  0.2500000000000000  0.9992834977587174
  0.7500000000000000  0.2500000000000000  0.4992834977587175
  0.7500000000000000  0.7500000000000000  0.9992834977587174
  0.7500000000000000  0.7500000000000000  0.4992834977587175
  0.1250000000000000  0.1250000000000000  0.1257165022412825
  0.1250000000000000  0.1250000000000000  0.6257165022412826
  0.1250000000000000  0.6250000000000000  0.1257165022412825
  0.1250000000000000  0.6250000000000000  0.6257165022412826
  0.6250000000000000  0.1250000000000000  0.1257165022412825
  0.6250000000000000  0.1250000000000000  0.6257165022412826
  0.6250000000000000  0.6250000000000000  0.1257165022412825
  0.6250000000000000  0.6250000000000000  0.6257165022412826
 
  0.00000000E+00  0.00000000E+00  0.00000000E+00
  0.00000000E+00  0.00000000E+00  0.00000000E+00
  0.00000000E+00  0.00000000E+00  0.00000000E+00
  0.00000000E+00  0.00000000E+00  0.00000000E+00
  0.00000000E+00  0.00000000E+00  0.00000000E+00
  0.00000000E+00  0.00000000E+00  0.00000000E+00
  0.00000000E+00  0.00000000E+00  0.00000000E+00
  0.00000000E+00  0.00000000E+00  0.00000000E+00
  0.00000000E+00  0.00000000E+00  0.00000000E+00
  0.00000000E+00  0.00000000E+00  0.00000000E+00
  0.00000000E+00  0.00000000E+00  0.00000000E+00
  0.00000000E+00  0.00000000E+00  0.00000000E+00
  0.00000000E+00  0.00000000E+00  0.00000000E+00
  0.00000000E+00  0.00000000E+00  0.00000000E+00
  0.00000000E+00  0.00000000E+00  0.00000000E+00
  0.00000000E+00  0.00000000E+00  0.00000000E+00
  0.00000000E+00  0.00000000E+00  0.00000000E+00
  0.00000000E+00  0.00000000E+00  0.00000000E+00
  0.00000000E+00  0.00000000E+00  0.00000000E+00
  0.00000000E+00  0.00000000E+00  0.00000000E+00
  0.00000000E+00  0.00000000E+00  0.00000000E+00
  0.00000000E+00  0.00000000E+00  0.00000000E+00
  0.00000000E+00  0.00000000E+00  0.00000000E+00
  0.00000000E+00  0.00000000E+00  0.00000000E+00
  0.00000000E+00  0.00000000E+00  0.00000000E+00
  0.00000000E+00  0.00000000E+00  0.00000000E+00
  0.00000000E+00  0.00000000E+00  0.00000000E+00
  0.00000000E+00  0.00000000E+00  0.00000000E+00
  0.00000000E+00  0.00000000E+00  0.00000000E+00
  0.00000000E+00  0.00000000E+00  0.00000000E+00
  0.00000000E+00  0.00000000E+00  0.00000000E+00
  0.00000000E+00  0.00000000E+00  0.00000000E+00
  0.00000000E+00  0.00000000E+00  0.00000000E+00
  0.00000000E+00  0.00000000E+00  0.00000000E+00
  0.00000000E+00  0.00000000E+00  0.00000000E+00
  0.00000000E+00  0.00000000E+00  0.00000000E+00
  0.00000000E+00  0.00000000E+00  0.00000000E+00
  0.00000000E+00  0.00000000E+00  0.00000000E+00
  0.00000000E+00  0.00000000E+00  0.00000000E+00
  0.00000000E+00  0.00000000E+00  0.00000000E+00
  0.00000000E+00  0.00000000E+00  0.00000000E+00
  0.00000000E+00  0.00000000E+00  0.00000000E+00
  0.00000000E+00  0.00000000E+00  0.00000000E+00
  0.00000000E+00  0.00000000E+00  0.00000000E+00
  0.00000000E+00  0.00000000E+00  0.00000000E+00
  0.00000000E+00  0.00000000E+00  0.00000000E+00
  0.00000000E+00  0.00000000E+00  0.00000000E+00
  0.00000000E+00  0.00000000E+00  0.00000000E+00
  0.00000000E+00  0.00000000E+00  0.00000000E+00
  0.00000000E+00  0.00000000E+00  0.00000000E+00
  0.00000000E+00  0.00000000E+00  0.00000000E+00
  0.00000000E+00  0.00000000E+00  0.00000000E+00
  0.00000000E+00  0.00000000E+00  0.00000000E+00
  0.00000000E+00  0.00000000E+00  0.00000000E+00
  0.00000000E+00  0.00000000E+00  0.00000000E+00
  0.00000000E+00  0.00000000E+00  0.00000000E+00
  0.00000000E+00  0.00000000E+00  0.00000000E+00
  0.00000000E+00  0.00000000E+00  0.00000000E+00
  0.00000000E+00  0.00000000E+00  0.00000000E+00
  0.00000000E+00  0.00000000E+00  0.00000000E+00
  0.00000000E+00  0.00000000E+00  0.00000000E+00
  0.00000000E+00  0.00000000E+00  0.00000000E+00
  0.00000000E+00  0.00000000E+00  0.00000000E+00
  0.00000000E+00  0.00000000E+00  0.00000000E+00
