Si8                                     
   1.00000014768065     
    10.5638500000000004   -0.0533530000000000    0.0000000000000000
    -0.0533530000000000   10.6705550000000002    0.0000000000000000
     0.0000000000000000    0.0000000000000000   10.6705550000000002
   Si
    64
Direct
  0.0000000000000000  0.0000000000000000  0.9995958975291462
  0.0000000000000000  0.0000000000000000  0.4995958975291462
  0.0000000000000000  0.5000000000000000  0.9995958975291462
  0.0000000000000000  0.5000000000000000  0.4995958975291462
  0.5000000000000000  0.0000000000000000  0.9995958975291462
  0.5000000000000000  0.0000000000000000  0.4995958975291462
  0.5000000000000000  0.5000000000000000  0.9995958975291462
  0.5000000000000000  0.5000000000000000  0.4995958975291462
  0.3750000000000000  0.3750000000000000  0.1254041024708537
  0.3750000000000000  0.3750000000000000  0.6254041024708538
  0.3750000000000000  0.8750000000000000  0.1254041024708537
  0.3750000000000000  0.8750000000000000  0.6254041024708538
  0.8750000000000000  0.3750000000000000  0.1254041024708537
  0.8750000000000000  0.3750000000000000  0.6254041024708538
  0.8750000000000000  0.8750000000000000  0.1254041024708537
  0.8750000000000000  0.8750000000000000  0.6254041024708538
  0.0000000000000000  0.2500000000000000  0.2495958975291463
  0.0000000000000000  0.2500000000000000  0.7495958975291462
  0.0000000000000000  0.7500000000000000  0.2495958975291463
  0.0000000000000000  0.7500000000000000  0.7495958975291462
  0.5000000000000000  0.2500000000000000  0.2495958975291463
  0.5000000000000000  0.2500000000000000  0.7495958975291462
  0.5000000000000000  0.7500000000000000  0.2495958975291463
  0.5000000000000000  0.7500000000000000  0.7495958975291462
  0.3750000000000000  0.1250000000000000  0.3754041024708538
  0.3750000000000000  0.1250000000000000  0.8754041024708538
  0.3750000000000000  0.6250000000000000  0.3754041024708538
  0.3750000000000000  0.6250000000000000  0.8754041024708538
  0.8750000000000000  0.1250000000000000  0.3754041024708538
  0.8750000000000000  0.1250000000000000  0.8754041024708538
  0.8750000000000000  0.6250000000000000  0.3754041024708538
  0.8750000000000000  0.6250000000000000  0.8754041024708538
  0.2500000000000000  0.0000000000000000  0.2495958975291463
  0.2500000000000000  0.0000000000000000  0.7495958975291462
  0.2500000000000000  0.5000000000000000  0.2495958975291463
  0.2500000000000000  0.5000000000000000  0.7495958975291462
  0.7500000000000000  0.0000000000000000  0.2495958975291463
  0.7500000000000000  0.0000000000000000  0.7495958975291462
  0.7500000000000000  0.5000000000000000  0.2495958975291463
  0.7500000000000000  0.5000000000000000  0.7495958975291462
  0.1250000000000000  0.3750000000000000  0.3754041024708538
  0.1250000000000000  0.3750000000000000  0.8754041024708538
  0.1250000000000000  0.8750000000000000  0.3754041024708538
  0.1250000000000000  0.8750000000000000  0.8754041024708538
  0.6250000000000000  0.3750000000000000  0.3754041024708538
  0.6250000000000000  0.3750000000000000  0.8754041024708538
  0.6250000000000000  0.8750000000000000  0.3754041024708538
  0.6250000000000000  0.8750000000000000  0.8754041024708538
  0.2500000000000000  0.2500000000000000  0.9995958975291462
  0.2500000000000000  0.2500000000000000  0.4995958975291462
  0.2500000000000000  0.7500000000000000  0.9995958975291462
  0.2500000000000000  0.7500000000000000  0.4995958975291462
  0.7500000000000000  0.2500000000000000  0.9995958975291462
  0.7500000000000000  0.2500000000000000  0.4995958975291462
  0.7500000000000000  0.7500000000000000  0.9995958975291462
  0.7500000000000000  0.7500000000000000  0.4995958975291462
  0.1250000000000000  0.1250000000000000  0.1254041024708537
  0.1250000000000000  0.1250000000000000  0.6254041024708538
  0.1250000000000000  0.6250000000000000  0.1254041024708537
  0.1250000000000000  0.6250000000000000  0.6254041024708538
  0.6250000000000000  0.1250000000000000  0.1254041024708537
  0.6250000000000000  0.1250000000000000  0.6254041024708538
  0.6250000000000000  0.6250000000000000  0.1254041024708537
  0.6250000000000000  0.6250000000000000  0.6254041024708538
 
  0.00000000E+00  0.00000000E+00  0.00000000E+00
  0.00000000E+00  0.00000000E+00  0.00000000E+00
  0.00000000E+00  0.00000000E+00  0.00000000E+00
  0.00000000E+00  0.00000000E+00  0.00000000E+00
  0.00000000E+00  0.00000000E+00  0.00000000E+00
  0.00000000E+00  0.00000000E+00  0.00000000E+00
  0.00000000E+00  0.00000000E+00  0.00000000E+00
  0.00000000E+00  0.00000000E+00  0.00000000E+00
  0.00000000E+00  0.00000000E+00  0.00000000E+00
  0.00000000E+00  0.00000000E+00  0.00000000E+00
  0.00000000E+00  0.00000000E+00  0.00000000E+00
  0.00000000E+00  0.00000000E+00  0.00000000E+00
  0.00000000E+00  0.00000000E+00  0.00000000E+00
  0.00000000E+00  0.00000000E+00  0.00000000E+00
  0.00000000E+00  0.00000000E+00  0.00000000E+00
  0.00000000E+00  0.00000000E+00  0.00000000E+00
  0.00000000E+00  0.00000000E+00  0.00000000E+00
  0.00000000E+00  0.00000000E+00  0.00000000E+00
  0.00000000E+00  0.00000000E+00  0.00000000E+00
  0.00000000E+00  0.00000000E+00  0.00000000E+00
  0.00000000E+00  0.00000000E+00  0.00000000E+00
  0.00000000E+00  0.00000000E+00  0.00000000E+00
  0.00000000E+00  0.00000000E+00  0.00000000E+00
  0.00000000E+00  0.00000000E+00  0.00000000E+00
  0.00000000E+00  0.00000000E+00  0.00000000E+00
  0.00000000E+00  0.00000000E+00  0.00000000E+00
  0.00000000E+00  0.00000000E+00  0.00000000E+00
  0.00000000E+00  0.00000000E+00  0.00000000E+00
  0.00000000E+00  0.00000000E+00  0.00000000E+00
  0.00000000E+00  0.00000000E+00  0.00000000E+00
  0.00000000E+00  0.00000000E+00  0.00000000E+00
  0.00000000E+00  0.00000000E+00  0.00000000E+00
  0.00000000E+00  0.00000000E+00  0.00000000E+00
  0.00000000E+00  0.00000000E+00  0.00000000E+00
  0.00000000E+00  0.00000000E+00  0.00000000E+00
  0.00000000E+00  0.00000000E+00  0.00000000E+00
  0.00000000E+00  0.00000000E+00  0.00000000E+00
  0.00000000E+00  0.00000000E+00  0.00000000E+00
  0.00000000E+00  0.00000000E+00  0.00000000E+00
  0.00000000E+00  0.00000000E+00  0.00000000E+00
  0.00000000E+00  0.00000000E+00  0.00000000E+00
  0.00000000E+00  0.00000000E+00  0.00000000E+00
  0.00000000E+00  0.00000000E+00  0.00000000E+00
  0.00000000E+00  0.00000000E+00  0.00000000E+00
  0.00000000E+00  0.00000000E+00  0.00000000E+00
  0.00000000E+00  0.00000000E+00  0.00000000E+00
  0.00000000E+00  0.00000000E+00  0.00000000E+00
  0.00000000E+00  0.00000000E+00  0.00000000E+00
  0.00000000E+00  0.00000000E+00  0.00000000E+00
  0.00000000E+00  0.00000000E+00  0.00000000E+00
  0.00000000E+00  0.00000000E+00  0.00000000E+00
  0.00000000E+00  0.00000000E+00  0.00000000E+00
  0.00000000E+00  0.00000000E+00  0.00000000E+00
  0.00000000E+00  0.00000000E+00  0.00000000E+00
  0.00000000E+00  0.00000000E+00  0.00000000E+00
  0.00000000E+00  0.00000000E+00  0.00000000E+00
  0.00000000E+00  0.00000000E+00  0.00000000E+00
  0.00000000E+00  0.00000000E+00  0.00000000E+00
  0.00000000E+00  0.00000000E+00  0.00000000E+00
  0.00000000E+00  0.00000000E+00  0.00000000E+00
  0.00000000E+00  0.00000000E+00  0.00000000E+00
  0.00000000E+00  0.00000000E+00  0.00000000E+00
  0.00000000E+00  0.00000000E+00  0.00000000E+00
  0.00000000E+00  0.00000000E+00  0.00000000E+00
