Si8                                     
   1.00000014768065     
    10.6367309999999993    0.0264600000000000    0.0000000000000000
     0.0264600000000000   10.5838120000000000    0.0000000000000000
     0.0000000000000000    0.0000000000000000   10.5838120000000000
   Si
    64
Direct
  0.0000000000000000  0.0000000000000000  0.0002068060554137
  0.0000000000000000  0.0000000000000000  0.5002068060554137
  0.0000000000000000  0.5000000000000000  0.0002068060554137
  0.0000000000000000  0.5000000000000000  0.5002068060554137
  0.5000000000000000  0.0000000000000000  0.0002068060554137
  0.5000000000000000  0.0000000000000000  0.5002068060554137
  0.5000000000000000  0.5000000000000000  0.0002068060554137
  0.5000000000000000  0.5000000000000000  0.5002068060554137
  0.3750000000000000  0.3750000000000000  0.1247931939445863
  0.3750000000000000  0.3750000000000000  0.6247931939445863
  0.3750000000000000  0.8750000000000000  0.1247931939445863
  0.3750000000000000  0.8750000000000000  0.6247931939445863
  0.8750000000000000  0.3750000000000000  0.1247931939445863
  0.8750000000000000  0.3750000000000000  0.6247931939445863
  0.8750000000000000  0.8750000000000000  0.1247931939445863
  0.8750000000000000  0.8750000000000000  0.6247931939445863
  0.0000000000000000  0.2500000000000000  0.2502068060554137
  0.0000000000000000  0.2500000000000000  0.7502068060554137
  0.0000000000000000  0.7500000000000000  0.2502068060554137
  0.0000000000000000  0.7500000000000000  0.7502068060554137
  0.5000000000000000  0.2500000000000000  0.2502068060554137
  0.5000000000000000  0.2500000000000000  0.7502068060554137
  0.5000000000000000  0.7500000000000000  0.2502068060554137
  0.5000000000000000  0.7500000000000000  0.7502068060554137
  0.3750000000000000  0.1250000000000000  0.3747931939445863
  0.3750000000000000  0.1250000000000000  0.8747931939445863
  0.3750000000000000  0.6250000000000000  0.3747931939445863
  0.3750000000000000  0.6250000000000000  0.8747931939445863
  0.8750000000000000  0.1250000000000000  0.3747931939445863
  0.8750000000000000  0.1250000000000000  0.8747931939445863
  0.8750000000000000  0.6250000000000000  0.3747931939445863
  0.8750000000000000  0.6250000000000000  0.8747931939445863
  0.2500000000000000  0.0000000000000000  0.2502068060554137
  0.2500000000000000  0.0000000000000000  0.7502068060554137
  0.2500000000000000  0.5000000000000000  0.2502068060554137
  0.2500000000000000  0.5000000000000000  0.7502068060554137
  0.7500000000000000  0.0000000000000000  0.2502068060554137
  0.7500000000000000  0.0000000000000000  0.7502068060554137
  0.7500000000000000  0.5000000000000000  0.2502068060554137
  0.7500000000000000  0.5000000000000000  0.7502068060554137
  0.1250000000000000  0.3750000000000000  0.3747931939445863
  0.1250000000000000  0.3750000000000000  0.8747931939445863
  0.1250000000000000  0.8750000000000000  0.3747931939445863
  0.1250000000000000  0.8750000000000000  0.8747931939445863
  0.6250000000000000  0.3750000000000000  0.3747931939445863
  0.6250000000000000  0.3750000000000000  0.8747931939445863
  0.6250000000000000  0.8750000000000000  0.3747931939445863
  0.6250000000000000  0.8750000000000000  0.8747931939445863
  0.2500000000000000  0.2500000000000000  0.0002068060554137
  0.2500000000000000  0.2500000000000000  0.5002068060554137
  0.2500000000000000  0.7500000000000000  0.0002068060554137
  0.2500000000000000  0.7500000000000000  0.5002068060554137
  0.7500000000000000  0.2500000000000000  0.0002068060554137
  0.7500000000000000  0.2500000000000000  0.5002068060554137
  0.7500000000000000  0.7500000000000000  0.0002068060554137
  0.7500000000000000  0.7500000000000000  0.5002068060554137
  0.1250000000000000  0.1250000000000000  0.1247931939445863
  0.1250000000000000  0.1250000000000000  0.6247931939445863
  0.1250000000000000  0.6250000000000000  0.1247931939445863
  0.1250000000000000  0.6250000000000000  0.6247931939445863
  0.6250000000000000  0.1250000000000000  0.1247931939445863
  0.6250000000000000  0.1250000000000000  0.6247931939445863
  0.6250000000000000  0.6250000000000000  0.1247931939445863
  0.6250000000000000  0.6250000000000000  0.6247931939445863
 
  0.00000000E+00  0.00000000E+00  0.00000000E+00
  0.00000000E+00  0.00000000E+00  0.00000000E+00
  0.00000000E+00  0.00000000E+00  0.00000000E+00
  0.00000000E+00  0.00000000E+00  0.00000000E+00
  0.00000000E+00  0.00000000E+00  0.00000000E+00
  0.00000000E+00  0.00000000E+00  0.00000000E+00
  0.00000000E+00  0.00000000E+00  0.00000000E+00
  0.00000000E+00  0.00000000E+00  0.00000000E+00
  0.00000000E+00  0.00000000E+00  0.00000000E+00
  0.00000000E+00  0.00000000E+00  0.00000000E+00
  0.00000000E+00  0.00000000E+00  0.00000000E+00
  0.00000000E+00  0.00000000E+00  0.00000000E+00
  0.00000000E+00  0.00000000E+00  0.00000000E+00
  0.00000000E+00  0.00000000E+00  0.00000000E+00
  0.00000000E+00  0.00000000E+00  0.00000000E+00
  0.00000000E+00  0.00000000E+00  0.00000000E+00
  0.00000000E+00  0.00000000E+00  0.00000000E+00
  0.00000000E+00  0.00000000E+00  0.00000000E+00
  0.00000000E+00  0.00000000E+00  0.00000000E+00
  0.00000000E+00  0.00000000E+00  0.00000000E+00
  0.00000000E+00  0.00000000E+00  0.00000000E+00
  0.00000000E+00  0.00000000E+00  0.00000000E+00
  0.00000000E+00  0.00000000E+00  0.00000000E+00
  0.00000000E+00  0.00000000E+00  0.00000000E+00
  0.00000000E+00  0.00000000E+00  0.00000000E+00
  0.00000000E+00  0.00000000E+00  0.00000000E+00
  0.00000000E+00  0.00000000E+00  0.00000000E+00
  0.00000000E+00  0.00000000E+00  0.00000000E+00
  0.00000000E+00  0.00000000E+00  0.00000000E+00
  0.00000000E+00  0.00000000E+00  0.00000000E+00
  0.00000000E+00  0.00000000E+00  0.00000000E+00
  0.00000000E+00  0.00000000E+00  0.00000000E+00
  0.00000000E+00  0.00000000E+00  0.00000000E+00
  0.00000000E+00  0.00000000E+00  0.00000000E+00
  0.00000000E+00  0.00000000E+00  0.00000000E+00
  0.00000000E+00  0.00000000E+00  0.00000000E+00
  0.00000000E+00  0.00000000E+00  0.00000000E+00
  0.00000000E+00  0.00000000E+00  0.00000000E+00
  0.00000000E+00  0.00000000E+00  0.00000000E+00
  0.00000000E+00  0.00000000E+00  0.00000000E+00
  0.00000000E+00  0.00000000E+00  0.00000000E+00
  0.00000000E+00  0.00000000E+00  0.00000000E+00
  0.00000000E+00  0.00000000E+00  0.00000000E+00
  0.00000000E+00  0.00000000E+00  0.00000000E+00
  0.00000000E+00  0.00000000E+00  0.00000000E+00
  0.00000000E+00  0.00000000E+00  0.00000000E+00
  0.00000000E+00  0.00000000E+00  0.00000000E+00
  0.00000000E+00  0.00000000E+00  0.00000000E+00
  0.00000000E+00  0.00000000E+00  0.00000000E+00
  0.00000000E+00  0.00000000E+00  0.00000000E+00
  0.00000000E+00  0.00000000E+00  0.00000000E+00
  0.00000000E+00  0.00000000E+00  0.00000000E+00
  0.00000000E+00  0.00000000E+00  0.00000000E+00
  0.00000000E+00  0.00000000E+00  0.00000000E+00
  0.00000000E+00  0.00000000E+00  0.00000000E+00
  0.00000000E+00  0.00000000E+00  0.00000000E+00
  0.00000000E+00  0.00000000E+00  0.00000000E+00
  0.00000000E+00  0.00000000E+00  0.00000000E+00
  0.00000000E+00  0.00000000E+00  0.00000000E+00
  0.00000000E+00  0.00000000E+00  0.00000000E+00
  0.00000000E+00  0.00000000E+00  0.00000000E+00
  0.00000000E+00  0.00000000E+00  0.00000000E+00
  0.00000000E+00  0.00000000E+00  0.00000000E+00
  0.00000000E+00  0.00000000E+00  0.00000000E+00
