Si8                                     
   1.00000014768065     
    10.8385560000000005    0.0536560000000000    0.0000000000000000
     0.0536560000000000   10.7312440000000002    0.0000000000000000
     0.0000000000000000    0.0000000000000000   10.7312440000000002
   Si
    64
Direct
  0.0000000000000000  0.0000000000000000  0.0003671312530051
  0.0000000000000000  0.0000000000000000  0.5003671312530051
  0.0000000000000000  0.5000000000000000  0.0003671312530051
  0.0000000000000000  0.5000000000000000  0.5003671312530051
  0.5000000000000000  0.0000000000000000  0.0003671312530051
  0.5000000000000000  0.0000000000000000  0.5003671312530051
  0.5000000000000000  0.5000000000000000  0.0003671312530051
  0.5000000000000000  0.5000000000000000  0.5003671312530051
  0.3750000000000000  0.3750000000000000  0.1246328687469949
  0.3750000000000000  0.3750000000000000  0.6246328687469949
  0.3750000000000000  0.8750000000000000  0.1246328687469949
  0.3750000000000000  0.8750000000000000  0.6246328687469949
  0.8750000000000000  0.3750000000000000  0.1246328687469949
  0.8750000000000000  0.3750000000000000  0.6246328687469949
  0.8750000000000000  0.8750000000000000  0.1246328687469949
  0.8750000000000000  0.8750000000000000  0.6246328687469949
  0.0000000000000000  0.2500000000000000  0.2503671312530051
  0.0000000000000000  0.2500000000000000  0.7503671312530051
  0.0000000000000000  0.7500000000000000  0.2503671312530051
  0.0000000000000000  0.7500000000000000  0.7503671312530051
  0.5000000000000000  0.2500000000000000  0.2503671312530051
  0.5000000000000000  0.2500000000000000  0.7503671312530051
  0.5000000000000000  0.7500000000000000  0.2503671312530051
  0.5000000000000000  0.7500000000000000  0.7503671312530051
  0.3750000000000000  0.1250000000000000  0.3746328687469949
  0.3750000000000000  0.1250000000000000  0.8746328687469949
  0.3750000000000000  0.6250000000000000  0.3746328687469949
  0.3750000000000000  0.6250000000000000  0.8746328687469949
  0.8750000000000000  0.1250000000000000  0.3746328687469949
  0.8750000000000000  0.1250000000000000  0.8746328687469949
  0.8750000000000000  0.6250000000000000  0.3746328687469949
  0.8750000000000000  0.6250000000000000  0.8746328687469949
  0.2500000000000000  0.0000000000000000  0.2503671312530051
  0.2500000000000000  0.0000000000000000  0.7503671312530051
  0.2500000000000000  0.5000000000000000  0.2503671312530051
  0.2500000000000000  0.5000000000000000  0.7503671312530051
  0.7500000000000000  0.0000000000000000  0.2503671312530051
  0.7500000000000000  0.0000000000000000  0.7503671312530051
  0.7500000000000000  0.5000000000000000  0.2503671312530051
  0.7500000000000000  0.5000000000000000  0.7503671312530051
  0.1250000000000000  0.3750000000000000  0.3746328687469949
  0.1250000000000000  0.3750000000000000  0.8746328687469949
  0.1250000000000000  0.8750000000000000  0.3746328687469949
  0.1250000000000000  0.8750000000000000  0.8746328687469949
  0.6250000000000000  0.3750000000000000  0.3746328687469949
  0.6250000000000000  0.3750000000000000  0.8746328687469949
  0.6250000000000000  0.8750000000000000  0.3746328687469949
  0.6250000000000000  0.8750000000000000  0.8746328687469949
  0.2500000000000000  0.2500000000000000  0.0003671312530051
  0.2500000000000000  0.2500000000000000  0.5003671312530051
  0.2500000000000000  0.7500000000000000  0.0003671312530051
  0.2500000000000000  0.7500000000000000  0.5003671312530051
  0.7500000000000000  0.2500000000000000  0.0003671312530051
  0.7500000000000000  0.2500000000000000  0.5003671312530051
  0.7500000000000000  0.7500000000000000  0.0003671312530051
  0.7500000000000000  0.7500000000000000  0.5003671312530051
  0.1250000000000000  0.1250000000000000  0.1246328687469949
  0.1250000000000000  0.1250000000000000  0.6246328687469949
  0.1250000000000000  0.6250000000000000  0.1246328687469949
  0.1250000000000000  0.6250000000000000  0.6246328687469949
  0.6250000000000000  0.1250000000000000  0.1246328687469949
  0.6250000000000000  0.1250000000000000  0.6246328687469949
  0.6250000000000000  0.6250000000000000  0.1246328687469949
  0.6250000000000000  0.6250000000000000  0.6246328687469949
 
  0.00000000E+00  0.00000000E+00  0.00000000E+00
  0.00000000E+00  0.00000000E+00  0.00000000E+00
  0.00000000E+00  0.00000000E+00  0.00000000E+00
  0.00000000E+00  0.00000000E+00  0.00000000E+00
  0.00000000E+00  0.00000000E+00  0.00000000E+00
  0.00000000E+00  0.00000000E+00  0.00000000E+00
  0.00000000E+00  0.00000000E+00  0.00000000E+00
  0.00000000E+00  0.00000000E+00  0.00000000E+00
  0.00000000E+00  0.00000000E+00  0.00000000E+00
  0.00000000E+00  0.00000000E+00  0.00000000E+00
  0.00000000E+00  0.00000000E+00  0.00000000E+00
  0.00000000E+00  0.00000000E+00  0.00000000E+00
  0.00000000E+00  0.00000000E+00  0.00000000E+00
  0.00000000E+00  0.00000000E+00  0.00000000E+00
  0.00000000E+00  0.00000000E+00  0.00000000E+00
  0.00000000E+00  0.00000000E+00  0.00000000E+00
  0.00000000E+00  0.00000000E+00  0.00000000E+00
  0.00000000E+00  0.00000000E+00  0.00000000E+00
  0.00000000E+00  0.00000000E+00  0.00000000E+00
  0.00000000E+00  0.00000000E+00  0.00000000E+00
  0.00000000E+00  0.00000000E+00  0.00000000E+00
  0.00000000E+00  0.00000000E+00  0.00000000E+00
  0.00000000E+00  0.00000000E+00  0.00000000E+00
  0.00000000E+00  0.00000000E+00  0.00000000E+00
  0.00000000E+00  0.00000000E+00  0.00000000E+00
  0.00000000E+00  0.00000000E+00  0.00000000E+00
  0.00000000E+00  0.00000000E+00  0.00000000E+00
  0.00000000E+00  0.00000000E+00  0.00000000E+00
  0.00000000E+00  0.00000000E+00  0.00000000E+00
  0.00000000E+00  0.00000000E+00  0.00000000E+00
  0.00000000E+00  0.00000000E+00  0.00000000E+00
  0.00000000E+00  0.00000000E+00  0.00000000E+00
  0.00000000E+00  0.00000000E+00  0.00000000E+00
  0.00000000E+00  0.00000000E+00  0.00000000E+00
  0.00000000E+00  0.00000000E+00  0.00000000E+00
  0.00000000E+00  0.00000000E+00  0.00000000E+00
  0.00000000E+00  0.00000000E+00  0.00000000E+00
  0.00000000E+00  0.00000000E+00  0.00000000E+00
  0.00000000E+00  0.00000000E+00  0.00000000E+00
  0.00000000E+00  0.00000000E+00  0.00000000E+00
  0.00000000E+00  0.00000000E+00  0.00000000E+00
  0.00000000E+00  0.00000000E+00  0.00000000E+00
  0.00000000E+00  0.00000000E+00  0.00000000E+00
  0.00000000E+00  0.00000000E+00  0.00000000E+00
  0.00000000E+00  0.00000000E+00  0.00000000E+00
  0.00000000E+00  0.00000000E+00  0.00000000E+00
  0.00000000E+00  0.00000000E+00  0.00000000E+00
  0.00000000E+00  0.00000000E+00  0.00000000E+00
  0.00000000E+00  0.00000000E+00  0.00000000E+00
  0.00000000E+00  0.00000000E+00  0.00000000E+00
  0.00000000E+00  0.00000000E+00  0.00000000E+00
  0.00000000E+00  0.00000000E+00  0.00000000E+00
  0.00000000E+00  0.00000000E+00  0.00000000E+00
  0.00000000E+00  0.00000000E+00  0.00000000E+00
  0.00000000E+00  0.00000000E+00  0.00000000E+00
  0.00000000E+00  0.00000000E+00  0.00000000E+00
  0.00000000E+00  0.00000000E+00  0.00000000E+00
  0.00000000E+00  0.00000000E+00  0.00000000E+00
  0.00000000E+00  0.00000000E+00  0.00000000E+00
  0.00000000E+00  0.00000000E+00  0.00000000E+00
  0.00000000E+00  0.00000000E+00  0.00000000E+00
  0.00000000E+00  0.00000000E+00  0.00000000E+00
  0.00000000E+00  0.00000000E+00  0.00000000E+00
  0.00000000E+00  0.00000000E+00  0.00000000E+00
