Si8                                     
   1.00000014768065     
    10.6564910000000008   -0.0538210000000000    0.0000000000000000
    -0.0538210000000000   10.7641320000000000    0.0000000000000000
     0.0000000000000000    0.0000000000000000   10.7641320000000000
   Si
    64
Direct
  0.0000000000000000  0.0000000000000000  0.9996267118206975
  0.0000000000000000  0.0000000000000000  0.4996267118206975
  0.0000000000000000  0.5000000000000000  0.9996267118206975
  0.0000000000000000  0.5000000000000000  0.4996267118206975
  0.5000000000000000  0.0000000000000000  0.9996267118206975
  0.5000000000000000  0.0000000000000000  0.4996267118206975
  0.5000000000000000  0.5000000000000000  0.9996267118206975
  0.5000000000000000  0.5000000000000000  0.4996267118206975
  0.3750000000000000  0.3750000000000000  0.1253732881793025
  0.3750000000000000  0.3750000000000000  0.6253732881793025
  0.3750000000000000  0.8750000000000000  0.1253732881793025
  0.3750000000000000  0.8750000000000000  0.6253732881793025
  0.8750000000000000  0.3750000000000000  0.1253732881793025
  0.8750000000000000  0.3750000000000000  0.6253732881793025
  0.8750000000000000  0.8750000000000000  0.1253732881793025
  0.8750000000000000  0.8750000000000000  0.6253732881793025
  0.0000000000000000  0.2500000000000000  0.2496267118206975
  0.0000000000000000  0.2500000000000000  0.7496267118206975
  0.0000000000000000  0.7500000000000000  0.2496267118206975
  0.0000000000000000  0.7500000000000000  0.7496267118206974
  0.5000000000000000  0.2500000000000000  0.2496267118206975
  0.5000000000000000  0.2500000000000000  0.7496267118206975
  0.5000000000000000  0.7500000000000000  0.2496267118206975
  0.5000000000000000  0.7500000000000000  0.7496267118206974
  0.3750000000000000  0.1250000000000000  0.3753732881793025
  0.3750000000000000  0.1250000000000000  0.8753732881793026
  0.3750000000000000  0.6250000000000000  0.3753732881793025
  0.3750000000000000  0.6250000000000000  0.8753732881793025
  0.8750000000000000  0.1250000000000000  0.3753732881793025
  0.8750000000000000  0.1250000000000000  0.8753732881793026
  0.8750000000000000  0.6250000000000000  0.3753732881793025
  0.8750000000000000  0.6250000000000000  0.8753732881793025
  0.2500000000000000  0.0000000000000000  0.2496267118206975
  0.2500000000000000  0.0000000000000000  0.7496267118206974
  0.2500000000000000  0.5000000000000000  0.2496267118206975
  0.2500000000000000  0.5000000000000000  0.7496267118206975
  0.7500000000000000  0.0000000000000000  0.2496267118206975
  0.7500000000000000  0.0000000000000000  0.7496267118206974
  0.7500000000000000  0.5000000000000000  0.2496267118206975
  0.7500000000000000  0.5000000000000000  0.7496267118206975
  0.1250000000000000  0.3750000000000000  0.3753732881793025
  0.1250000000000000  0.3750000000000000  0.8753732881793025
  0.1250000000000000  0.8750000000000000  0.3753732881793025
  0.1250000000000000  0.8750000000000000  0.8753732881793026
  0.6250000000000000  0.3750000000000000  0.3753732881793025
  0.6250000000000000  0.3750000000000000  0.8753732881793025
  0.6250000000000000  0.8750000000000000  0.3753732881793025
  0.6250000000000000  0.8750000000000000  0.8753732881793025
  0.2500000000000000  0.2500000000000000  0.9996267118206975
  0.2500000000000000  0.2500000000000000  0.4996267118206975
  0.2500000000000000  0.7500000000000000  0.9996267118206974
  0.2500000000000000  0.7500000000000000  0.4996267118206975
  0.7500000000000000  0.2500000000000000  0.9996267118206975
  0.7500000000000000  0.2500000000000000  0.4996267118206975
  0.7500000000000000  0.7500000000000000  0.9996267118206974
  0.7500000000000000  0.7500000000000000  0.4996267118206975
  0.1250000000000000  0.1250000000000000  0.1253732881793025
  0.1250000000000000  0.1250000000000000  0.6253732881793025
  0.1250000000000000  0.6250000000000000  0.1253732881793025
  0.1250000000000000  0.6250000000000000  0.6253732881793025
  0.6250000000000000  0.1250000000000000  0.1253732881793025
  0.6250000000000000  0.1250000000000000  0.6253732881793026
  0.6250000000000000  0.6250000000000000  0.1253732881793025
  0.6250000000000000  0.6250000000000000  0.6253732881793025
 
  0.00000000E+00  0.00000000E+00  0.00000000E+00
  0.00000000E+00  0.00000000E+00  0.00000000E+00
  0.00000000E+00  0.00000000E+00  0.00000000E+00
  0.00000000E+00  0.00000000E+00  0.00000000E+00
  0.00000000E+00  0.00000000E+00  0.00000000E+00
  0.00000000E+00  0.00000000E+00  0.00000000E+00
  0.00000000E+00  0.00000000E+00  0.00000000E+00
  0.00000000E+00  0.00000000E+00  0.00000000E+00
  0.00000000E+00  0.00000000E+00  0.00000000E+00
  0.00000000E+00  0.00000000E+00  0.00000000E+00
  0.00000000E+00  0.00000000E+00  0.00000000E+00
  0.00000000E+00  0.00000000E+00  0.00000000E+00
  0.00000000E+00  0.00000000E+00  0.00000000E+00
  0.00000000E+00  0.00000000E+00  0.00000000E+00
  0.00000000E+00  0.00000000E+00  0.00000000E+00
  0.00000000E+00  0.00000000E+00  0.00000000E+00
  0.00000000E+00  0.00000000E+00  0.00000000E+00
  0.00000000E+00  0.00000000E+00  0.00000000E+00
  0.00000000E+00  0.00000000E+00  0.00000000E+00
  0.00000000E+00  0.00000000E+00  0.00000000E+00
  0.00000000E+00  0.00000000E+00  0.00000000E+00
  0.00000000E+00  0.00000000E+00  0.00000000E+00
  0.00000000E+00  0.00000000E+00  0.00000000E+00
  0.00000000E+00  0.00000000E+00  0.00000000E+00
  0.00000000E+00  0.00000000E+00  0.00000000E+00
  0.00000000E+00  0.00000000E+00  0.00000000E+00
  0.00000000E+00  0.00000000E+00  0.00000000E+00
  0.00000000E+00  0.00000000E+00  0.00000000E+00
  0.00000000E+00  0.00000000E+00  0.00000000E+00
  0.00000000E+00  0.00000000E+00  0.00000000E+00
  0.00000000E+00  0.00000000E+00  0.00000000E+00
  0.00000000E+00  0.00000000E+00  0.00000000E+00
  0.00000000E+00  0.00000000E+00  0.00000000E+00
  0.00000000E+00  0.00000000E+00  0.00000000E+00
  0.00000000E+00  0.00000000E+00  0.00000000E+00
  0.00000000E+00  0.00000000E+00  0.00000000E+00
  0.00000000E+00  0.00000000E+00  0.00000000E+00
  0.00000000E+00  0.00000000E+00  0.00000000E+00
  0.00000000E+00  0.00000000E+00  0.00000000E+00
  0.00000000E+00  0.00000000E+00  0.00000000E+00
  0.00000000E+00  0.00000000E+00  0.00000000E+00
  0.00000000E+00  0.00000000E+00  0.00000000E+00
  0.00000000E+00  0.00000000E+00  0.00000000E+00
  0.00000000E+00  0.00000000E+00  0.00000000E+00
  0.00000000E+00  0.00000000E+00  0.00000000E+00
  0.00000000E+00  0.00000000E+00  0.00000000E+00
  0.00000000E+00  0.00000000E+00  0.00000000E+00
  0.00000000E+00  0.00000000E+00  0.00000000E+00
  0.00000000E+00  0.00000000E+00  0.00000000E+00
  0.00000000E+00  0.00000000E+00  0.00000000E+00
  0.00000000E+00  0.00000000E+00  0.00000000E+00
  0.00000000E+00  0.00000000E+00  0.00000000E+00
  0.00000000E+00  0.00000000E+00  0.00000000E+00
  0.00000000E+00  0.00000000E+00  0.00000000E+00
  0.00000000E+00  0.00000000E+00  0.00000000E+00
  0.00000000E+00  0.00000000E+00  0.00000000E+00
  0.00000000E+00  0.00000000E+00  0.00000000E+00
  0.00000000E+00  0.00000000E+00  0.00000000E+00
  0.00000000E+00  0.00000000E+00  0.00000000E+00
  0.00000000E+00  0.00000000E+00  0.00000000E+00
  0.00000000E+00  0.00000000E+00  0.00000000E+00
  0.00000000E+00  0.00000000E+00  0.00000000E+00
  0.00000000E+00  0.00000000E+00  0.00000000E+00
  0.00000000E+00  0.00000000E+00  0.00000000E+00
