Si8                                     
   1.00000014768065     
    10.7152689999999993    0.0791770000000000    0.0000000000000000
     0.0791770000000000   10.5569159999999993    0.0000000000000000
     0.0000000000000000    0.0000000000000000   10.5569159999999993
   Si
    64
Direct
  0.0000000000000000  0.0000000000000000  0.0006352954145017
  0.0000000000000000  0.0000000000000000  0.5006352954145017
  0.0000000000000000  0.5000000000000000  0.0006352954145017
  0.0000000000000000  0.5000000000000000  0.5006352954145017
  0.5000000000000000  0.0000000000000000  0.0006352954145017
  0.5000000000000000  0.0000000000000000  0.5006352954145017
  0.5000000000000000  0.5000000000000000  0.0006352954145017
  0.5000000000000000  0.5000000000000000  0.5006352954145017
  0.3750000000000000  0.3750000000000000  0.1243647045854983
  0.3750000000000000  0.3750000000000000  0.6243647045854983
  0.3750000000000000  0.8750000000000000  0.1243647045854983
  0.3750000000000000  0.8750000000000000  0.6243647045854983
  0.8750000000000000  0.3750000000000000  0.1243647045854983
  0.8750000000000000  0.3750000000000000  0.6243647045854983
  0.8750000000000000  0.8750000000000000  0.1243647045854983
  0.8750000000000000  0.8750000000000000  0.6243647045854983
  0.0000000000000000  0.2500000000000000  0.2506352954145017
  0.0000000000000000  0.2500000000000000  0.7506352954145017
  0.0000000000000000  0.7500000000000000  0.2506352954145017
  0.0000000000000000  0.7500000000000000  0.7506352954145017
  0.5000000000000000  0.2500000000000000  0.2506352954145017
  0.5000000000000000  0.2500000000000000  0.7506352954145017
  0.5000000000000000  0.7500000000000000  0.2506352954145017
  0.5000000000000000  0.7500000000000000  0.7506352954145017
  0.3750000000000000  0.1250000000000000  0.3743647045854983
  0.3750000000000000  0.1250000000000000  0.8743647045854983
  0.3750000000000000  0.6250000000000000  0.3743647045854983
  0.3750000000000000  0.6250000000000000  0.8743647045854983
  0.8750000000000000  0.1250000000000000  0.3743647045854983
  0.8750000000000000  0.1250000000000000  0.8743647045854983
  0.8750000000000000  0.6250000000000000  0.3743647045854983
  0.8750000000000000  0.6250000000000000  0.8743647045854983
  0.2500000000000000  0.0000000000000000  0.2506352954145017
  0.2500000000000000  0.0000000000000000  0.7506352954145017
  0.2500000000000000  0.5000000000000000  0.2506352954145017
  0.2500000000000000  0.5000000000000000  0.7506352954145017
  0.7500000000000000  0.0000000000000000  0.2506352954145017
  0.7500000000000000  0.0000000000000000  0.7506352954145017
  0.7500000000000000  0.5000000000000000  0.2506352954145017
  0.7500000000000000  0.5000000000000000  0.7506352954145017
  0.1250000000000000  0.3750000000000000  0.3743647045854983
  0.1250000000000000  0.3750000000000000  0.8743647045854983
  0.1250000000000000  0.8750000000000000  0.3743647045854983
  0.1250000000000000  0.8750000000000000  0.8743647045854983
  0.6250000000000000  0.3750000000000000  0.3743647045854983
  0.6250000000000000  0.3750000000000000  0.8743647045854983
  0.6250000000000000  0.8750000000000000  0.3743647045854983
  0.6250000000000000  0.8750000000000000  0.8743647045854983
  0.2500000000000000  0.2500000000000000  0.0006352954145017
  0.2500000000000000  0.2500000000000000  0.5006352954145017
  0.2500000000000000  0.7500000000000000  0.0006352954145017
  0.2500000000000000  0.7500000000000000  0.5006352954145017
  0.7500000000000000  0.2500000000000000  0.0006352954145017
  0.7500000000000000  0.2500000000000000  0.5006352954145017
  0.7500000000000000  0.7500000000000000  0.0006352954145017
  0.7500000000000000  0.7500000000000000  0.5006352954145017
  0.1250000000000000  0.1250000000000000  0.1243647045854983
  0.1250000000000000  0.1250000000000000  0.6243647045854983
  0.1250000000000000  0.6250000000000000  0.1243647045854983
  0.1250000000000000  0.6250000000000000  0.6243647045854983
  0.6250000000000000  0.1250000000000000  0.1243647045854983
  0.6250000000000000  0.1250000000000000  0.6243647045854983
  0.6250000000000000  0.6250000000000000  0.1243647045854983
  0.6250000000000000  0.6250000000000000  0.6243647045854983
 
  0.00000000E+00  0.00000000E+00  0.00000000E+00
  0.00000000E+00  0.00000000E+00  0.00000000E+00
  0.00000000E+00  0.00000000E+00  0.00000000E+00
  0.00000000E+00  0.00000000E+00  0.00000000E+00
  0.00000000E+00  0.00000000E+00  0.00000000E+00
  0.00000000E+00  0.00000000E+00  0.00000000E+00
  0.00000000E+00  0.00000000E+00  0.00000000E+00
  0.00000000E+00  0.00000000E+00  0.00000000E+00
  0.00000000E+00  0.00000000E+00  0.00000000E+00
  0.00000000E+00  0.00000000E+00  0.00000000E+00
  0.00000000E+00  0.00000000E+00  0.00000000E+00
  0.00000000E+00  0.00000000E+00  0.00000000E+00
  0.00000000E+00  0.00000000E+00  0.00000000E+00
  0.00000000E+00  0.00000000E+00  0.00000000E+00
  0.00000000E+00  0.00000000E+00  0.00000000E+00
  0.00000000E+00  0.00000000E+00  0.00000000E+00
  0.00000000E+00  0.00000000E+00  0.00000000E+00
  0.00000000E+00  0.00000000E+00  0.00000000E+00
  0.00000000E+00  0.00000000E+00  0.00000000E+00
  0.00000000E+00  0.00000000E+00  0.00000000E+00
  0.00000000E+00  0.00000000E+00  0.00000000E+00
  0.00000000E+00  0.00000000E+00  0.00000000E+00
  0.00000000E+00  0.00000000E+00  0.00000000E+00
  0.00000000E+00  0.00000000E+00  0.00000000E+00
  0.00000000E+00  0.00000000E+00  0.00000000E+00
  0.00000000E+00  0.00000000E+00  0.00000000E+00
  0.00000000E+00  0.00000000E+00  0.00000000E+00
  0.00000000E+00  0.00000000E+00  0.00000000E+00
  0.00000000E+00  0.00000000E+00  0.00000000E+00
  0.00000000E+00  0.00000000E+00  0.00000000E+00
  0.00000000E+00  0.00000000E+00  0.00000000E+00
  0.00000000E+00  0.00000000E+00  0.00000000E+00
  0.00000000E+00  0.00000000E+00  0.00000000E+00
  0.00000000E+00  0.00000000E+00  0.00000000E+00
  0.00000000E+00  0.00000000E+00  0.00000000E+00
  0.00000000E+00  0.00000000E+00  0.00000000E+00
  0.00000000E+00  0.00000000E+00  0.00000000E+00
  0.00000000E+00  0.00000000E+00  0.00000000E+00
  0.00000000E+00  0.00000000E+00  0.00000000E+00
  0.00000000E+00  0.00000000E+00  0.00000000E+00
  0.00000000E+00  0.00000000E+00  0.00000000E+00
  0.00000000E+00  0.00000000E+00  0.00000000E+00
  0.00000000E+00  0.00000000E+00  0.00000000E+00
  0.00000000E+00  0.00000000E+00  0.00000000E+00
  0.00000000E+00  0.00000000E+00  0.00000000E+00
  0.00000000E+00  0.00000000E+00  0.00000000E+00
  0.00000000E+00  0.00000000E+00  0.00000000E+00
  0.00000000E+00  0.00000000E+00  0.00000000E+00
  0.00000000E+00  0.00000000E+00  0.00000000E+00
  0.00000000E+00  0.00000000E+00  0.00000000E+00
  0.00000000E+00  0.00000000E+00  0.00000000E+00
  0.00000000E+00  0.00000000E+00  0.00000000E+00
  0.00000000E+00  0.00000000E+00  0.00000000E+00
  0.00000000E+00  0.00000000E+00  0.00000000E+00
  0.00000000E+00  0.00000000E+00  0.00000000E+00
  0.00000000E+00  0.00000000E+00  0.00000000E+00
  0.00000000E+00  0.00000000E+00  0.00000000E+00
  0.00000000E+00  0.00000000E+00  0.00000000E+00
  0.00000000E+00  0.00000000E+00  0.00000000E+00
  0.00000000E+00  0.00000000E+00  0.00000000E+00
  0.00000000E+00  0.00000000E+00  0.00000000E+00
  0.00000000E+00  0.00000000E+00  0.00000000E+00
  0.00000000E+00  0.00000000E+00  0.00000000E+00
  0.00000000E+00  0.00000000E+00  0.00000000E+00
