Si8                                     
   1.00000014768065     
    10.4864110000000004   -0.1070040000000000    0.0000000000000000
    -0.1070040000000000   10.7004190000000001    0.0000000000000000
     0.0000000000000000    0.0000000000000000   10.7004190000000001
   Si
    64
Direct
  0.0000000000000000  0.0000000000000000  0.9991629031796320
  0.0000000000000000  0.0000000000000000  0.4991629031796321
  0.0000000000000000  0.5000000000000000  0.9991629031796320
  0.0000000000000000  0.5000000000000000  0.4991629031796321
  0.5000000000000000  0.0000000000000000  0.9991629031796320
  0.5000000000000000  0.0000000000000000  0.4991629031796321
  0.5000000000000000  0.5000000000000000  0.9991629031796320
  0.5000000000000000  0.5000000000000000  0.4991629031796321
  0.3750000000000000  0.3750000000000000  0.1258370968203679
  0.3750000000000000  0.3750000000000000  0.6258370968203680
  0.3750000000000000  0.8750000000000000  0.1258370968203679
  0.3750000000000000  0.8750000000000000  0.6258370968203680
  0.8750000000000000  0.3750000000000000  0.1258370968203679
  0.8750000000000000  0.3750000000000000  0.6258370968203680
  0.8750000000000000  0.8750000000000000  0.1258370968203679
  0.8750000000000000  0.8750000000000000  0.6258370968203680
  0.0000000000000000  0.2500000000000000  0.2491629031796321
  0.0000000000000000  0.2500000000000000  0.7491629031796320
  0.0000000000000000  0.7500000000000000  0.2491629031796321
  0.0000000000000000  0.7500000000000000  0.7491629031796320
  0.5000000000000000  0.2500000000000000  0.2491629031796321
  0.5000000000000000  0.2500000000000000  0.7491629031796320
  0.5000000000000000  0.7500000000000000  0.2491629031796321
  0.5000000000000000  0.7500000000000000  0.7491629031796320
  0.3750000000000000  0.1250000000000000  0.3758370968203679
  0.3750000000000000  0.1250000000000000  0.8758370968203680
  0.3750000000000000  0.6250000000000000  0.3758370968203679
  0.3750000000000000  0.6250000000000000  0.8758370968203680
  0.8750000000000000  0.1250000000000000  0.3758370968203679
  0.8750000000000000  0.1250000000000000  0.8758370968203680
  0.8750000000000000  0.6250000000000000  0.3758370968203679
  0.8750000000000000  0.6250000000000000  0.8758370968203680
  0.2500000000000000  0.0000000000000000  0.2491629031796321
  0.2500000000000000  0.0000000000000000  0.7491629031796320
  0.2500000000000000  0.5000000000000000  0.2491629031796321
  0.2500000000000000  0.5000000000000000  0.7491629031796320
  0.7500000000000000  0.0000000000000000  0.2491629031796321
  0.7500000000000000  0.0000000000000000  0.7491629031796320
  0.7500000000000000  0.5000000000000000  0.2491629031796321
  0.7500000000000000  0.5000000000000000  0.7491629031796320
  0.1250000000000000  0.3750000000000000  0.3758370968203679
  0.1250000000000000  0.3750000000000000  0.8758370968203680
  0.1250000000000000  0.8750000000000000  0.3758370968203679
  0.1250000000000000  0.8750000000000000  0.8758370968203680
  0.6250000000000000  0.3750000000000000  0.3758370968203679
  0.6250000000000000  0.3750000000000000  0.8758370968203680
  0.6250000000000000  0.8750000000000000  0.3758370968203679
  0.6250000000000000  0.8750000000000000  0.8758370968203680
  0.2500000000000000  0.2500000000000000  0.9991629031796320
  0.2500000000000000  0.2500000000000000  0.4991629031796321
  0.2500000000000000  0.7500000000000000  0.9991629031796320
  0.2500000000000000  0.7500000000000000  0.4991629031796321
  0.7500000000000000  0.2500000000000000  0.9991629031796320
  0.7500000000000000  0.2500000000000000  0.4991629031796321
  0.7500000000000000  0.7500000000000000  0.9991629031796320
  0.7500000000000000  0.7500000000000000  0.4991629031796321
  0.1250000000000000  0.1250000000000000  0.1258370968203679
  0.1250000000000000  0.1250000000000000  0.6258370968203680
  0.1250000000000000  0.6250000000000000  0.1258370968203679
  0.1250000000000000  0.6250000000000000  0.6258370968203680
  0.6250000000000000  0.1250000000000000  0.1258370968203679
  0.6250000000000000  0.1250000000000000  0.6258370968203680
  0.6250000000000000  0.6250000000000000  0.1258370968203679
  0.6250000000000000  0.6250000000000000  0.6258370968203680
 
  0.00000000E+00  0.00000000E+00  0.00000000E+00
  0.00000000E+00  0.00000000E+00  0.00000000E+00
  0.00000000E+00  0.00000000E+00  0.00000000E+00
  0.00000000E+00  0.00000000E+00  0.00000000E+00
  0.00000000E+00  0.00000000E+00  0.00000000E+00
  0.00000000E+00  0.00000000E+00  0.00000000E+00
  0.00000000E+00  0.00000000E+00  0.00000000E+00
  0.00000000E+00  0.00000000E+00  0.00000000E+00
  0.00000000E+00  0.00000000E+00  0.00000000E+00
  0.00000000E+00  0.00000000E+00  0.00000000E+00
  0.00000000E+00  0.00000000E+00  0.00000000E+00
  0.00000000E+00  0.00000000E+00  0.00000000E+00
  0.00000000E+00  0.00000000E+00  0.00000000E+00
  0.00000000E+00  0.00000000E+00  0.00000000E+00
  0.00000000E+00  0.00000000E+00  0.00000000E+00
  0.00000000E+00  0.00000000E+00  0.00000000E+00
  0.00000000E+00  0.00000000E+00  0.00000000E+00
  0.00000000E+00  0.00000000E+00  0.00000000E+00
  0.00000000E+00  0.00000000E+00  0.00000000E+00
  0.00000000E+00  0.00000000E+00  0.00000000E+00
  0.00000000E+00  0.00000000E+00  0.00000000E+00
  0.00000000E+00  0.00000000E+00  0.00000000E+00
  0.00000000E+00  0.00000000E+00  0.00000000E+00
  0.00000000E+00  0.00000000E+00  0.00000000E+00
  0.00000000E+00  0.00000000E+00  0.00000000E+00
  0.00000000E+00  0.00000000E+00  0.00000000E+00
  0.00000000E+00  0.00000000E+00  0.00000000E+00
  0.00000000E+00  0.00000000E+00  0.00000000E+00
  0.00000000E+00  0.00000000E+00  0.00000000E+00
  0.00000000E+00  0.00000000E+00  0.00000000E+00
  0.00000000E+00  0.00000000E+00  0.00000000E+00
  0.00000000E+00  0.00000000E+00  0.00000000E+00
  0.00000000E+00  0.00000000E+00  0.00000000E+00
  0.00000000E+00  0.00000000E+00  0.00000000E+00
  0.00000000E+00  0.00000000E+00  0.00000000E+00
  0.00000000E+00  0.00000000E+00  0.00000000E+00
  0.00000000E+00  0.00000000E+00  0.00000000E+00
  0.00000000E+00  0.00000000E+00  0.00000000E+00
  0.00000000E+00  0.00000000E+00  0.00000000E+00
  0.00000000E+00  0.00000000E+00  0.00000000E+00
  0.00000000E+00  0.00000000E+00  0.00000000E+00
  0.00000000E+00  0.00000000E+00  0.00000000E+00
  0.00000000E+00  0.00000000E+00  0.00000000E+00
  0.00000000E+00  0.00000000E+00  0.00000000E+00
  0.00000000E+00  0.00000000E+00  0.00000000E+00
  0.00000000E+00  0.00000000E+00  0.00000000E+00
  0.00000000E+00  0.00000000E+00  0.00000000E+00
  0.00000000E+00  0.00000000E+00  0.00000000E+00
  0.00000000E+00  0.00000000E+00  0.00000000E+00
  0.00000000E+00  0.00000000E+00  0.00000000E+00
  0.00000000E+00  0.00000000E+00  0.00000000E+00
  0.00000000E+00  0.00000000E+00  0.00000000E+00
  0.00000000E+00  0.00000000E+00  0.00000000E+00
  0.00000000E+00  0.00000000E+00  0.00000000E+00
  0.00000000E+00  0.00000000E+00  0.00000000E+00
  0.00000000E+00  0.00000000E+00  0.00000000E+00
  0.00000000E+00  0.00000000E+00  0.00000000E+00
  0.00000000E+00  0.00000000E+00  0.00000000E+00
  0.00000000E+00  0.00000000E+00  0.00000000E+00
  0.00000000E+00  0.00000000E+00  0.00000000E+00
  0.00000000E+00  0.00000000E+00  0.00000000E+00
  0.00000000E+00  0.00000000E+00  0.00000000E+00
  0.00000000E+00  0.00000000E+00  0.00000000E+00
  0.00000000E+00  0.00000000E+00  0.00000000E+00
