Si8                                     
   1.00000014768065     
    10.7627509999999997   -0.0543570000000000    0.0000000000000000
    -0.0543570000000000   10.8714659999999999    0.0000000000000000
     0.0000000000000000    0.0000000000000000   10.8714659999999999
   Si
    64
Direct
  0.0000000000000000  0.0000000000000000  0.9996584643978663
  0.0000000000000000  0.0000000000000000  0.4996584643978664
  0.0000000000000000  0.5000000000000000  0.9996584643978663
  0.0000000000000000  0.5000000000000000  0.4996584643978664
  0.5000000000000000  0.0000000000000000  0.9996584643978663
  0.5000000000000000  0.0000000000000000  0.4996584643978664
  0.5000000000000000  0.5000000000000000  0.9996584643978663
  0.5000000000000000  0.5000000000000000  0.4996584643978664
  0.3750000000000000  0.3750000000000000  0.1253415356021336
  0.3750000000000000  0.3750000000000000  0.6253415356021337
  0.3750000000000000  0.8750000000000000  0.1253415356021336
  0.3750000000000000  0.8750000000000000  0.6253415356021337
  0.8750000000000000  0.3750000000000000  0.1253415356021336
  0.8750000000000000  0.3750000000000000  0.6253415356021337
  0.8750000000000000  0.8750000000000000  0.1253415356021336
  0.8750000000000000  0.8750000000000000  0.6253415356021337
  0.0000000000000000  0.2500000000000000  0.2496584643978664
  0.0000000000000000  0.2500000000000000  0.7496584643978663
  0.0000000000000000  0.7500000000000000  0.2496584643978664
  0.0000000000000000  0.7500000000000000  0.7496584643978663
  0.5000000000000000  0.2500000000000000  0.2496584643978664
  0.5000000000000000  0.2500000000000000  0.7496584643978663
  0.5000000000000000  0.7500000000000000  0.2496584643978664
  0.5000000000000000  0.7500000000000000  0.7496584643978663
  0.3750000000000000  0.1250000000000000  0.3753415356021336
  0.3750000000000000  0.1250000000000000  0.8753415356021337
  0.3750000000000000  0.6250000000000000  0.3753415356021336
  0.3750000000000000  0.6250000000000000  0.8753415356021337
  0.8750000000000000  0.1250000000000000  0.3753415356021336
  0.8750000000000000  0.1250000000000000  0.8753415356021337
  0.8750000000000000  0.6250000000000000  0.3753415356021336
  0.8750000000000000  0.6250000000000000  0.8753415356021337
  0.2500000000000000  0.0000000000000000  0.2496584643978664
  0.2500000000000000  0.0000000000000000  0.7496584643978663
  0.2500000000000000  0.5000000000000000  0.2496584643978664
  0.2500000000000000  0.5000000000000000  0.7496584643978663
  0.7500000000000000  0.0000000000000000  0.2496584643978664
  0.7500000000000000  0.0000000000000000  0.7496584643978663
  0.7500000000000000  0.5000000000000000  0.2496584643978664
  0.7500000000000000  0.5000000000000000  0.7496584643978663
  0.1250000000000000  0.3750000000000000  0.3753415356021336
  0.1250000000000000  0.3750000000000000  0.8753415356021337
  0.1250000000000000  0.8750000000000000  0.3753415356021336
  0.1250000000000000  0.8750000000000000  0.8753415356021337
  0.6250000000000000  0.3750000000000000  0.3753415356021336
  0.6250000000000000  0.3750000000000000  0.8753415356021337
  0.6250000000000000  0.8750000000000000  0.3753415356021336
  0.6250000000000000  0.8750000000000000  0.8753415356021337
  0.2500000000000000  0.2500000000000000  0.9996584643978663
  0.2500000000000000  0.2500000000000000  0.4996584643978664
  0.2500000000000000  0.7500000000000000  0.9996584643978663
  0.2500000000000000  0.7500000000000000  0.4996584643978664
  0.7500000000000000  0.2500000000000000  0.9996584643978663
  0.7500000000000000  0.2500000000000000  0.4996584643978664
  0.7500000000000000  0.7500000000000000  0.9996584643978663
  0.7500000000000000  0.7500000000000000  0.4996584643978664
  0.1250000000000000  0.1250000000000000  0.1253415356021336
  0.1250000000000000  0.1250000000000000  0.6253415356021337
  0.1250000000000000  0.6250000000000000  0.1253415356021336
  0.1250000000000000  0.6250000000000000  0.6253415356021337
  0.6250000000000000  0.1250000000000000  0.1253415356021336
  0.6250000000000000  0.1250000000000000  0.6253415356021337
  0.6250000000000000  0.6250000000000000  0.1253415356021336
  0.6250000000000000  0.6250000000000000  0.6253415356021337
 
  0.00000000E+00  0.00000000E+00  0.00000000E+00
  0.00000000E+00  0.00000000E+00  0.00000000E+00
  0.00000000E+00  0.00000000E+00  0.00000000E+00
  0.00000000E+00  0.00000000E+00  0.00000000E+00
  0.00000000E+00  0.00000000E+00  0.00000000E+00
  0.00000000E+00  0.00000000E+00  0.00000000E+00
  0.00000000E+00  0.00000000E+00  0.00000000E+00
  0.00000000E+00  0.00000000E+00  0.00000000E+00
  0.00000000E+00  0.00000000E+00  0.00000000E+00
  0.00000000E+00  0.00000000E+00  0.00000000E+00
  0.00000000E+00  0.00000000E+00  0.00000000E+00
  0.00000000E+00  0.00000000E+00  0.00000000E+00
  0.00000000E+00  0.00000000E+00  0.00000000E+00
  0.00000000E+00  0.00000000E+00  0.00000000E+00
  0.00000000E+00  0.00000000E+00  0.00000000E+00
  0.00000000E+00  0.00000000E+00  0.00000000E+00
  0.00000000E+00  0.00000000E+00  0.00000000E+00
  0.00000000E+00  0.00000000E+00  0.00000000E+00
  0.00000000E+00  0.00000000E+00  0.00000000E+00
  0.00000000E+00  0.00000000E+00  0.00000000E+00
  0.00000000E+00  0.00000000E+00  0.00000000E+00
  0.00000000E+00  0.00000000E+00  0.00000000E+00
  0.00000000E+00  0.00000000E+00  0.00000000E+00
  0.00000000E+00  0.00000000E+00  0.00000000E+00
  0.00000000E+00  0.00000000E+00  0.00000000E+00
  0.00000000E+00  0.00000000E+00  0.00000000E+00
  0.00000000E+00  0.00000000E+00  0.00000000E+00
  0.00000000E+00  0.00000000E+00  0.00000000E+00
  0.00000000E+00  0.00000000E+00  0.00000000E+00
  0.00000000E+00  0.00000000E+00  0.00000000E+00
  0.00000000E+00  0.00000000E+00  0.00000000E+00
  0.00000000E+00  0.00000000E+00  0.00000000E+00
  0.00000000E+00  0.00000000E+00  0.00000000E+00
  0.00000000E+00  0.00000000E+00  0.00000000E+00
  0.00000000E+00  0.00000000E+00  0.00000000E+00
  0.00000000E+00  0.00000000E+00  0.00000000E+00
  0.00000000E+00  0.00000000E+00  0.00000000E+00
  0.00000000E+00  0.00000000E+00  0.00000000E+00
  0.00000000E+00  0.00000000E+00  0.00000000E+00
  0.00000000E+00  0.00000000E+00  0.00000000E+00
  0.00000000E+00  0.00000000E+00  0.00000000E+00
  0.00000000E+00  0.00000000E+00  0.00000000E+00
  0.00000000E+00  0.00000000E+00  0.00000000E+00
  0.00000000E+00  0.00000000E+00  0.00000000E+00
  0.00000000E+00  0.00000000E+00  0.00000000E+00
  0.00000000E+00  0.00000000E+00  0.00000000E+00
  0.00000000E+00  0.00000000E+00  0.00000000E+00
  0.00000000E+00  0.00000000E+00  0.00000000E+00
  0.00000000E+00  0.00000000E+00  0.00000000E+00
  0.00000000E+00  0.00000000E+00  0.00000000E+00
  0.00000000E+00  0.00000000E+00  0.00000000E+00
  0.00000000E+00  0.00000000E+00  0.00000000E+00
  0.00000000E+00  0.00000000E+00  0.00000000E+00
  0.00000000E+00  0.00000000E+00  0.00000000E+00
  0.00000000E+00  0.00000000E+00  0.00000000E+00
  0.00000000E+00  0.00000000E+00  0.00000000E+00
  0.00000000E+00  0.00000000E+00  0.00000000E+00
  0.00000000E+00  0.00000000E+00  0.00000000E+00
  0.00000000E+00  0.00000000E+00  0.00000000E+00
  0.00000000E+00  0.00000000E+00  0.00000000E+00
  0.00000000E+00  0.00000000E+00  0.00000000E+00
  0.00000000E+00  0.00000000E+00  0.00000000E+00
  0.00000000E+00  0.00000000E+00  0.00000000E+00
  0.00000000E+00  0.00000000E+00  0.00000000E+00
