Si8                                     
   1.00000014768065     
    10.7255800000000008   -0.0541700000000000    0.0000000000000000
    -0.0541700000000000   10.8339189999999999    0.0000000000000000
     0.0000000000000000    0.0000000000000000   10.8339189999999999
   Si
    64
Direct
  0.0000000000000000  0.0000000000000000  0.9996479981284824
  0.0000000000000000  0.0000000000000000  0.4996479981284824
  0.0000000000000000  0.5000000000000000  0.9996479981284824
  0.0000000000000000  0.5000000000000000  0.4996479981284824
  0.5000000000000000  0.0000000000000000  0.9996479981284824
  0.5000000000000000  0.0000000000000000  0.4996479981284824
  0.5000000000000000  0.5000000000000000  0.9996479981284824
  0.5000000000000000  0.5000000000000000  0.4996479981284824
  0.3750000000000000  0.3750000000000000  0.1253520018715176
  0.3750000000000000  0.3750000000000000  0.6253520018715176
  0.3750000000000000  0.8750000000000000  0.1253520018715176
  0.3750000000000000  0.8750000000000000  0.6253520018715176
  0.8750000000000000  0.3750000000000000  0.1253520018715176
  0.8750000000000000  0.3750000000000000  0.6253520018715176
  0.8750000000000000  0.8750000000000000  0.1253520018715176
  0.8750000000000000  0.8750000000000000  0.6253520018715176
  0.0000000000000000  0.2500000000000000  0.2496479981284824
  0.0000000000000000  0.2500000000000000  0.7496479981284824
  0.0000000000000000  0.7500000000000000  0.2496479981284824
  0.0000000000000000  0.7500000000000000  0.7496479981284824
  0.5000000000000000  0.2500000000000000  0.2496479981284824
  0.5000000000000000  0.2500000000000000  0.7496479981284824
  0.5000000000000000  0.7500000000000000  0.2496479981284824
  0.5000000000000000  0.7500000000000000  0.7496479981284824
  0.3750000000000000  0.1250000000000000  0.3753520018715176
  0.3750000000000000  0.1250000000000000  0.8753520018715176
  0.3750000000000000  0.6250000000000000  0.3753520018715176
  0.3750000000000000  0.6250000000000000  0.8753520018715176
  0.8750000000000000  0.1250000000000000  0.3753520018715176
  0.8750000000000000  0.1250000000000000  0.8753520018715176
  0.8750000000000000  0.6250000000000000  0.3753520018715176
  0.8750000000000000  0.6250000000000000  0.8753520018715176
  0.2500000000000000  0.0000000000000000  0.2496479981284824
  0.2500000000000000  0.0000000000000000  0.7496479981284824
  0.2500000000000000  0.5000000000000000  0.2496479981284824
  0.2500000000000000  0.5000000000000000  0.7496479981284824
  0.7500000000000000  0.0000000000000000  0.2496479981284824
  0.7500000000000000  0.0000000000000000  0.7496479981284824
  0.7500000000000000  0.5000000000000000  0.2496479981284824
  0.7500000000000000  0.5000000000000000  0.7496479981284824
  0.1250000000000000  0.3750000000000000  0.3753520018715176
  0.1250000000000000  0.3750000000000000  0.8753520018715176
  0.1250000000000000  0.8750000000000000  0.3753520018715176
  0.1250000000000000  0.8750000000000000  0.8753520018715176
  0.6250000000000000  0.3750000000000000  0.3753520018715176
  0.6250000000000000  0.3750000000000000  0.8753520018715176
  0.6250000000000000  0.8750000000000000  0.3753520018715176
  0.6250000000000000  0.8750000000000000  0.8753520018715176
  0.2500000000000000  0.2500000000000000  0.9996479981284824
  0.2500000000000000  0.2500000000000000  0.4996479981284824
  0.2500000000000000  0.7500000000000000  0.9996479981284824
  0.2500000000000000  0.7500000000000000  0.4996479981284824
  0.7500000000000000  0.2500000000000000  0.9996479981284824
  0.7500000000000000  0.2500000000000000  0.4996479981284824
  0.7500000000000000  0.7500000000000000  0.9996479981284824
  0.7500000000000000  0.7500000000000000  0.4996479981284824
  0.1250000000000000  0.1250000000000000  0.1253520018715176
  0.1250000000000000  0.1250000000000000  0.6253520018715176
  0.1250000000000000  0.6250000000000000  0.1253520018715176
  0.1250000000000000  0.6250000000000000  0.6253520018715176
  0.6250000000000000  0.1250000000000000  0.1253520018715176
  0.6250000000000000  0.1250000000000000  0.6253520018715176
  0.6250000000000000  0.6250000000000000  0.1253520018715176
  0.6250000000000000  0.6250000000000000  0.6253520018715176
 
  0.00000000E+00  0.00000000E+00  0.00000000E+00
  0.00000000E+00  0.00000000E+00  0.00000000E+00
  0.00000000E+00  0.00000000E+00  0.00000000E+00
  0.00000000E+00  0.00000000E+00  0.00000000E+00
  0.00000000E+00  0.00000000E+00  0.00000000E+00
  0.00000000E+00  0.00000000E+00  0.00000000E+00
  0.00000000E+00  0.00000000E+00  0.00000000E+00
  0.00000000E+00  0.00000000E+00  0.00000000E+00
  0.00000000E+00  0.00000000E+00  0.00000000E+00
  0.00000000E+00  0.00000000E+00  0.00000000E+00
  0.00000000E+00  0.00000000E+00  0.00000000E+00
  0.00000000E+00  0.00000000E+00  0.00000000E+00
  0.00000000E+00  0.00000000E+00  0.00000000E+00
  0.00000000E+00  0.00000000E+00  0.00000000E+00
  0.00000000E+00  0.00000000E+00  0.00000000E+00
  0.00000000E+00  0.00000000E+00  0.00000000E+00
  0.00000000E+00  0.00000000E+00  0.00000000E+00
  0.00000000E+00  0.00000000E+00  0.00000000E+00
  0.00000000E+00  0.00000000E+00  0.00000000E+00
  0.00000000E+00  0.00000000E+00  0.00000000E+00
  0.00000000E+00  0.00000000E+00  0.00000000E+00
  0.00000000E+00  0.00000000E+00  0.00000000E+00
  0.00000000E+00  0.00000000E+00  0.00000000E+00
  0.00000000E+00  0.00000000E+00  0.00000000E+00
  0.00000000E+00  0.00000000E+00  0.00000000E+00
  0.00000000E+00  0.00000000E+00  0.00000000E+00
  0.00000000E+00  0.00000000E+00  0.00000000E+00
  0.00000000E+00  0.00000000E+00  0.00000000E+00
  0.00000000E+00  0.00000000E+00  0.00000000E+00
  0.00000000E+00  0.00000000E+00  0.00000000E+00
  0.00000000E+00  0.00000000E+00  0.00000000E+00
  0.00000000E+00  0.00000000E+00  0.00000000E+00
  0.00000000E+00  0.00000000E+00  0.00000000E+00
  0.00000000E+00  0.00000000E+00  0.00000000E+00
  0.00000000E+00  0.00000000E+00  0.00000000E+00
  0.00000000E+00  0.00000000E+00  0.00000000E+00
  0.00000000E+00  0.00000000E+00  0.00000000E+00
  0.00000000E+00  0.00000000E+00  0.00000000E+00
  0.00000000E+00  0.00000000E+00  0.00000000E+00
  0.00000000E+00  0.00000000E+00  0.00000000E+00
  0.00000000E+00  0.00000000E+00  0.00000000E+00
  0.00000000E+00  0.00000000E+00  0.00000000E+00
  0.00000000E+00  0.00000000E+00  0.00000000E+00
  0.00000000E+00  0.00000000E+00  0.00000000E+00
  0.00000000E+00  0.00000000E+00  0.00000000E+00
  0.00000000E+00  0.00000000E+00  0.00000000E+00
  0.00000000E+00  0.00000000E+00  0.00000000E+00
  0.00000000E+00  0.00000000E+00  0.00000000E+00
  0.00000000E+00  0.00000000E+00  0.00000000E+00
  0.00000000E+00  0.00000000E+00  0.00000000E+00
  0.00000000E+00  0.00000000E+00  0.00000000E+00
  0.00000000E+00  0.00000000E+00  0.00000000E+00
  0.00000000E+00  0.00000000E+00  0.00000000E+00
  0.00000000E+00  0.00000000E+00  0.00000000E+00
  0.00000000E+00  0.00000000E+00  0.00000000E+00
  0.00000000E+00  0.00000000E+00  0.00000000E+00
  0.00000000E+00  0.00000000E+00  0.00000000E+00
  0.00000000E+00  0.00000000E+00  0.00000000E+00
  0.00000000E+00  0.00000000E+00  0.00000000E+00
  0.00000000E+00  0.00000000E+00  0.00000000E+00
  0.00000000E+00  0.00000000E+00  0.00000000E+00
  0.00000000E+00  0.00000000E+00  0.00000000E+00
  0.00000000E+00  0.00000000E+00  0.00000000E+00
  0.00000000E+00  0.00000000E+00  0.00000000E+00
