Si8                                     
   1.00000014768065     
    10.9602369999999993    0.0809870000000000    0.0000000000000000
     0.0809870000000000   10.7982630000000004    0.0000000000000000
     0.0000000000000000    0.0000000000000000   10.7982630000000004
   Si
    64
Direct
  0.0000000000000000  0.0000000000000000  0.0005168551748036
  0.0000000000000000  0.0000000000000000  0.5005168551748036
  0.0000000000000000  0.5000000000000000  0.0005168551748036
  0.0000000000000000  0.5000000000000000  0.5005168551748036
  0.5000000000000000  0.0000000000000000  0.0005168551748036
  0.5000000000000000  0.0000000000000000  0.5005168551748036
  0.5000000000000000  0.5000000000000000  0.0005168551748036
  0.5000000000000000  0.5000000000000000  0.5005168551748036
  0.3750000000000000  0.3750000000000000  0.1244831448251965
  0.3750000000000000  0.3750000000000000  0.6244831448251964
  0.3750000000000000  0.8750000000000000  0.1244831448251965
  0.3750000000000000  0.8750000000000000  0.6244831448251964
  0.8750000000000000  0.3750000000000000  0.1244831448251965
  0.8750000000000000  0.3750000000000000  0.6244831448251964
  0.8750000000000000  0.8750000000000000  0.1244831448251965
  0.8750000000000000  0.8750000000000000  0.6244831448251964
  0.0000000000000000  0.2500000000000000  0.2505168551748036
  0.0000000000000000  0.2500000000000000  0.7505168551748036
  0.0000000000000000  0.7500000000000000  0.2505168551748036
  0.0000000000000000  0.7500000000000000  0.7505168551748036
  0.5000000000000000  0.2500000000000000  0.2505168551748036
  0.5000000000000000  0.2500000000000000  0.7505168551748036
  0.5000000000000000  0.7500000000000000  0.2505168551748036
  0.5000000000000000  0.7500000000000000  0.7505168551748036
  0.3750000000000000  0.1250000000000000  0.3744831448251964
  0.3750000000000000  0.1250000000000000  0.8744831448251964
  0.3750000000000000  0.6250000000000000  0.3744831448251964
  0.3750000000000000  0.6250000000000000  0.8744831448251964
  0.8750000000000000  0.1250000000000000  0.3744831448251964
  0.8750000000000000  0.1250000000000000  0.8744831448251964
  0.8750000000000000  0.6250000000000000  0.3744831448251964
  0.8750000000000000  0.6250000000000000  0.8744831448251964
  0.2500000000000000  0.0000000000000000  0.2505168551748036
  0.2500000000000000  0.0000000000000000  0.7505168551748036
  0.2500000000000000  0.5000000000000000  0.2505168551748036
  0.2500000000000000  0.5000000000000000  0.7505168551748036
  0.7500000000000000  0.0000000000000000  0.2505168551748036
  0.7500000000000000  0.0000000000000000  0.7505168551748036
  0.7500000000000000  0.5000000000000000  0.2505168551748036
  0.7500000000000000  0.5000000000000000  0.7505168551748036
  0.1250000000000000  0.3750000000000000  0.3744831448251964
  0.1250000000000000  0.3750000000000000  0.8744831448251964
  0.1250000000000000  0.8750000000000000  0.3744831448251964
  0.1250000000000000  0.8750000000000000  0.8744831448251964
  0.6250000000000000  0.3750000000000000  0.3744831448251964
  0.6250000000000000  0.3750000000000000  0.8744831448251964
  0.6250000000000000  0.8750000000000000  0.3744831448251964
  0.6250000000000000  0.8750000000000000  0.8744831448251964
  0.2500000000000000  0.2500000000000000  0.0005168551748036
  0.2500000000000000  0.2500000000000000  0.5005168551748036
  0.2500000000000000  0.7500000000000000  0.0005168551748036
  0.2500000000000000  0.7500000000000000  0.5005168551748036
  0.7500000000000000  0.2500000000000000  0.0005168551748036
  0.7500000000000000  0.2500000000000000  0.5005168551748036
  0.7500000000000000  0.7500000000000000  0.0005168551748036
  0.7500000000000000  0.7500000000000000  0.5005168551748036
  0.1250000000000000  0.1250000000000000  0.1244831448251965
  0.1250000000000000  0.1250000000000000  0.6244831448251964
  0.1250000000000000  0.6250000000000000  0.1244831448251965
  0.1250000000000000  0.6250000000000000  0.6244831448251964
  0.6250000000000000  0.1250000000000000  0.1244831448251965
  0.6250000000000000  0.1250000000000000  0.6244831448251964
  0.6250000000000000  0.6250000000000000  0.1244831448251965
  0.6250000000000000  0.6250000000000000  0.6244831448251964
 
  0.00000000E+00  0.00000000E+00  0.00000000E+00
  0.00000000E+00  0.00000000E+00  0.00000000E+00
  0.00000000E+00  0.00000000E+00  0.00000000E+00
  0.00000000E+00  0.00000000E+00  0.00000000E+00
  0.00000000E+00  0.00000000E+00  0.00000000E+00
  0.00000000E+00  0.00000000E+00  0.00000000E+00
  0.00000000E+00  0.00000000E+00  0.00000000E+00
  0.00000000E+00  0.00000000E+00  0.00000000E+00
  0.00000000E+00  0.00000000E+00  0.00000000E+00
  0.00000000E+00  0.00000000E+00  0.00000000E+00
  0.00000000E+00  0.00000000E+00  0.00000000E+00
  0.00000000E+00  0.00000000E+00  0.00000000E+00
  0.00000000E+00  0.00000000E+00  0.00000000E+00
  0.00000000E+00  0.00000000E+00  0.00000000E+00
  0.00000000E+00  0.00000000E+00  0.00000000E+00
  0.00000000E+00  0.00000000E+00  0.00000000E+00
  0.00000000E+00  0.00000000E+00  0.00000000E+00
  0.00000000E+00  0.00000000E+00  0.00000000E+00
  0.00000000E+00  0.00000000E+00  0.00000000E+00
  0.00000000E+00  0.00000000E+00  0.00000000E+00
  0.00000000E+00  0.00000000E+00  0.00000000E+00
  0.00000000E+00  0.00000000E+00  0.00000000E+00
  0.00000000E+00  0.00000000E+00  0.00000000E+00
  0.00000000E+00  0.00000000E+00  0.00000000E+00
  0.00000000E+00  0.00000000E+00  0.00000000E+00
  0.00000000E+00  0.00000000E+00  0.00000000E+00
  0.00000000E+00  0.00000000E+00  0.00000000E+00
  0.00000000E+00  0.00000000E+00  0.00000000E+00
  0.00000000E+00  0.00000000E+00  0.00000000E+00
  0.00000000E+00  0.00000000E+00  0.00000000E+00
  0.00000000E+00  0.00000000E+00  0.00000000E+00
  0.00000000E+00  0.00000000E+00  0.00000000E+00
  0.00000000E+00  0.00000000E+00  0.00000000E+00
  0.00000000E+00  0.00000000E+00  0.00000000E+00
  0.00000000E+00  0.00000000E+00  0.00000000E+00
  0.00000000E+00  0.00000000E+00  0.00000000E+00
  0.00000000E+00  0.00000000E+00  0.00000000E+00
  0.00000000E+00  0.00000000E+00  0.00000000E+00
  0.00000000E+00  0.00000000E+00  0.00000000E+00
  0.00000000E+00  0.00000000E+00  0.00000000E+00
  0.00000000E+00  0.00000000E+00  0.00000000E+00
  0.00000000E+00  0.00000000E+00  0.00000000E+00
  0.00000000E+00  0.00000000E+00  0.00000000E+00
  0.00000000E+00  0.00000000E+00  0.00000000E+00
  0.00000000E+00  0.00000000E+00  0.00000000E+00
  0.00000000E+00  0.00000000E+00  0.00000000E+00
  0.00000000E+00  0.00000000E+00  0.00000000E+00
  0.00000000E+00  0.00000000E+00  0.00000000E+00
  0.00000000E+00  0.00000000E+00  0.00000000E+00
  0.00000000E+00  0.00000000E+00  0.00000000E+00
  0.00000000E+00  0.00000000E+00  0.00000000E+00
  0.00000000E+00  0.00000000E+00  0.00000000E+00
  0.00000000E+00  0.00000000E+00  0.00000000E+00
  0.00000000E+00  0.00000000E+00  0.00000000E+00
  0.00000000E+00  0.00000000E+00  0.00000000E+00
  0.00000000E+00  0.00000000E+00  0.00000000E+00
  0.00000000E+00  0.00000000E+00  0.00000000E+00
  0.00000000E+00  0.00000000E+00  0.00000000E+00
  0.00000000E+00  0.00000000E+00  0.00000000E+00
  0.00000000E+00  0.00000000E+00  0.00000000E+00
  0.00000000E+00  0.00000000E+00  0.00000000E+00
  0.00000000E+00  0.00000000E+00  0.00000000E+00
  0.00000000E+00  0.00000000E+00  0.00000000E+00
  0.00000000E+00  0.00000000E+00  0.00000000E+00
