Si8                                     
   1.00000014768065     
    10.7442720000000005   -0.0269960000000000    0.0000000000000000
    -0.0269960000000000   10.7982630000000004    0.0000000000000000
     0.0000000000000000    0.0000000000000000   10.7982630000000004
   Si
    64
Direct
  0.0000000000000000  0.0000000000000000  0.9998226877860962
  0.0000000000000000  0.0000000000000000  0.4998226877860962
  0.0000000000000000  0.5000000000000000  0.9998226877860962
  0.0000000000000000  0.5000000000000000  0.4998226877860962
  0.5000000000000000  0.0000000000000000  0.9998226877860962
  0.5000000000000000  0.0000000000000000  0.4998226877860962
  0.5000000000000000  0.5000000000000000  0.9998226877860962
  0.5000000000000000  0.5000000000000000  0.4998226877860962
  0.3750000000000000  0.3750000000000000  0.1251773122139039
  0.3750000000000000  0.3750000000000000  0.6251773122139038
  0.3750000000000000  0.8750000000000000  0.1251773122139039
  0.3750000000000000  0.8750000000000000  0.6251773122139038
  0.8750000000000000  0.3750000000000000  0.1251773122139039
  0.8750000000000000  0.3750000000000000  0.6251773122139038
  0.8750000000000000  0.8750000000000000  0.1251773122139039
  0.8750000000000000  0.8750000000000000  0.6251773122139038
  0.0000000000000000  0.2500000000000000  0.2498226877860961
  0.0000000000000000  0.2500000000000000  0.7498226877860962
  0.0000000000000000  0.7500000000000000  0.2498226877860961
  0.0000000000000000  0.7500000000000000  0.7498226877860962
  0.5000000000000000  0.2500000000000000  0.2498226877860961
  0.5000000000000000  0.2500000000000000  0.7498226877860962
  0.5000000000000000  0.7500000000000000  0.2498226877860961
  0.5000000000000000  0.7500000000000000  0.7498226877860962
  0.3750000000000000  0.1250000000000000  0.3751773122139038
  0.3750000000000000  0.1250000000000000  0.8751773122139038
  0.3750000000000000  0.6250000000000000  0.3751773122139038
  0.3750000000000000  0.6250000000000000  0.8751773122139038
  0.8750000000000000  0.1250000000000000  0.3751773122139038
  0.8750000000000000  0.1250000000000000  0.8751773122139038
  0.8750000000000000  0.6250000000000000  0.3751773122139038
  0.8750000000000000  0.6250000000000000  0.8751773122139038
  0.2500000000000000  0.0000000000000000  0.2498226877860961
  0.2500000000000000  0.0000000000000000  0.7498226877860962
  0.2500000000000000  0.5000000000000000  0.2498226877860961
  0.2500000000000000  0.5000000000000000  0.7498226877860962
  0.7500000000000000  0.0000000000000000  0.2498226877860961
  0.7500000000000000  0.0000000000000000  0.7498226877860962
  0.7500000000000000  0.5000000000000000  0.2498226877860961
  0.7500000000000000  0.5000000000000000  0.7498226877860962
  0.1250000000000000  0.3750000000000000  0.3751773122139038
  0.1250000000000000  0.3750000000000000  0.8751773122139038
  0.1250000000000000  0.8750000000000000  0.3751773122139038
  0.1250000000000000  0.8750000000000000  0.8751773122139038
  0.6250000000000000  0.3750000000000000  0.3751773122139038
  0.6250000000000000  0.3750000000000000  0.8751773122139038
  0.6250000000000000  0.8750000000000000  0.3751773122139038
  0.6250000000000000  0.8750000000000000  0.8751773122139038
  0.2500000000000000  0.2500000000000000  0.9998226877860962
  0.2500000000000000  0.2500000000000000  0.4998226877860962
  0.2500000000000000  0.7500000000000000  0.9998226877860962
  0.2500000000000000  0.7500000000000000  0.4998226877860962
  0.7500000000000000  0.2500000000000000  0.9998226877860962
  0.7500000000000000  0.2500000000000000  0.4998226877860962
  0.7500000000000000  0.7500000000000000  0.9998226877860962
  0.7500000000000000  0.7500000000000000  0.4998226877860962
  0.1250000000000000  0.1250000000000000  0.1251773122139039
  0.1250000000000000  0.1250000000000000  0.6251773122139038
  0.1250000000000000  0.6250000000000000  0.1251773122139039
  0.1250000000000000  0.6250000000000000  0.6251773122139038
  0.6250000000000000  0.1250000000000000  0.1251773122139039
  0.6250000000000000  0.1250000000000000  0.6251773122139038
  0.6250000000000000  0.6250000000000000  0.1251773122139039
  0.6250000000000000  0.6250000000000000  0.6251773122139038
 
  0.00000000E+00  0.00000000E+00  0.00000000E+00
  0.00000000E+00  0.00000000E+00  0.00000000E+00
  0.00000000E+00  0.00000000E+00  0.00000000E+00
  0.00000000E+00  0.00000000E+00  0.00000000E+00
  0.00000000E+00  0.00000000E+00  0.00000000E+00
  0.00000000E+00  0.00000000E+00  0.00000000E+00
  0.00000000E+00  0.00000000E+00  0.00000000E+00
  0.00000000E+00  0.00000000E+00  0.00000000E+00
  0.00000000E+00  0.00000000E+00  0.00000000E+00
  0.00000000E+00  0.00000000E+00  0.00000000E+00
  0.00000000E+00  0.00000000E+00  0.00000000E+00
  0.00000000E+00  0.00000000E+00  0.00000000E+00
  0.00000000E+00  0.00000000E+00  0.00000000E+00
  0.00000000E+00  0.00000000E+00  0.00000000E+00
  0.00000000E+00  0.00000000E+00  0.00000000E+00
  0.00000000E+00  0.00000000E+00  0.00000000E+00
  0.00000000E+00  0.00000000E+00  0.00000000E+00
  0.00000000E+00  0.00000000E+00  0.00000000E+00
  0.00000000E+00  0.00000000E+00  0.00000000E+00
  0.00000000E+00  0.00000000E+00  0.00000000E+00
  0.00000000E+00  0.00000000E+00  0.00000000E+00
  0.00000000E+00  0.00000000E+00  0.00000000E+00
  0.00000000E+00  0.00000000E+00  0.00000000E+00
  0.00000000E+00  0.00000000E+00  0.00000000E+00
  0.00000000E+00  0.00000000E+00  0.00000000E+00
  0.00000000E+00  0.00000000E+00  0.00000000E+00
  0.00000000E+00  0.00000000E+00  0.00000000E+00
  0.00000000E+00  0.00000000E+00  0.00000000E+00
  0.00000000E+00  0.00000000E+00  0.00000000E+00
  0.00000000E+00  0.00000000E+00  0.00000000E+00
  0.00000000E+00  0.00000000E+00  0.00000000E+00
  0.00000000E+00  0.00000000E+00  0.00000000E+00
  0.00000000E+00  0.00000000E+00  0.00000000E+00
  0.00000000E+00  0.00000000E+00  0.00000000E+00
  0.00000000E+00  0.00000000E+00  0.00000000E+00
  0.00000000E+00  0.00000000E+00  0.00000000E+00
  0.00000000E+00  0.00000000E+00  0.00000000E+00
  0.00000000E+00  0.00000000E+00  0.00000000E+00
  0.00000000E+00  0.00000000E+00  0.00000000E+00
  0.00000000E+00  0.00000000E+00  0.00000000E+00
  0.00000000E+00  0.00000000E+00  0.00000000E+00
  0.00000000E+00  0.00000000E+00  0.00000000E+00
  0.00000000E+00  0.00000000E+00  0.00000000E+00
  0.00000000E+00  0.00000000E+00  0.00000000E+00
  0.00000000E+00  0.00000000E+00  0.00000000E+00
  0.00000000E+00  0.00000000E+00  0.00000000E+00
  0.00000000E+00  0.00000000E+00  0.00000000E+00
  0.00000000E+00  0.00000000E+00  0.00000000E+00
  0.00000000E+00  0.00000000E+00  0.00000000E+00
  0.00000000E+00  0.00000000E+00  0.00000000E+00
  0.00000000E+00  0.00000000E+00  0.00000000E+00
  0.00000000E+00  0.00000000E+00  0.00000000E+00
  0.00000000E+00  0.00000000E+00  0.00000000E+00
  0.00000000E+00  0.00000000E+00  0.00000000E+00
  0.00000000E+00  0.00000000E+00  0.00000000E+00
  0.00000000E+00  0.00000000E+00  0.00000000E+00
  0.00000000E+00  0.00000000E+00  0.00000000E+00
  0.00000000E+00  0.00000000E+00  0.00000000E+00
  0.00000000E+00  0.00000000E+00  0.00000000E+00
  0.00000000E+00  0.00000000E+00  0.00000000E+00
  0.00000000E+00  0.00000000E+00  0.00000000E+00
  0.00000000E+00  0.00000000E+00  0.00000000E+00
  0.00000000E+00  0.00000000E+00  0.00000000E+00
  0.00000000E+00  0.00000000E+00  0.00000000E+00
