Si8                                     
   1.00000014768065     
    10.6097000000000001    0.0263920000000000    0.0000000000000000
     0.0263920000000000   10.5569159999999993    0.0000000000000000
     0.0000000000000000    0.0000000000000000   10.5569159999999993
   Si
    64
Direct
  0.0000000000000000  0.0000000000000000  0.0002132728984131
  0.0000000000000000  0.0000000000000000  0.5002132728984131
  0.0000000000000000  0.5000000000000000  0.0002132728984131
  0.0000000000000000  0.5000000000000000  0.5002132728984131
  0.5000000000000000  0.0000000000000000  0.0002132728984131
  0.5000000000000000  0.0000000000000000  0.5002132728984131
  0.5000000000000000  0.5000000000000000  0.0002132728984131
  0.5000000000000000  0.5000000000000000  0.5002132728984131
  0.3750000000000000  0.3750000000000000  0.1247867271015869
  0.3750000000000000  0.3750000000000000  0.6247867271015869
  0.3750000000000000  0.8750000000000000  0.1247867271015869
  0.3750000000000000  0.8750000000000000  0.6247867271015869
  0.8750000000000000  0.3750000000000000  0.1247867271015869
  0.8750000000000000  0.3750000000000000  0.6247867271015869
  0.8750000000000000  0.8750000000000000  0.1247867271015869
  0.8750000000000000  0.8750000000000000  0.6247867271015869
  0.0000000000000000  0.2500000000000000  0.2502132728984131
  0.0000000000000000  0.2500000000000000  0.7502132728984131
  0.0000000000000000  0.7500000000000000  0.2502132728984131
  0.0000000000000000  0.7500000000000000  0.7502132728984131
  0.5000000000000000  0.2500000000000000  0.2502132728984131
  0.5000000000000000  0.2500000000000000  0.7502132728984131
  0.5000000000000000  0.7500000000000000  0.2502132728984131
  0.5000000000000000  0.7500000000000000  0.7502132728984131
  0.3750000000000000  0.1250000000000000  0.3747867271015869
  0.3750000000000000  0.1250000000000000  0.8747867271015869
  0.3750000000000000  0.6250000000000000  0.3747867271015869
  0.3750000000000000  0.6250000000000000  0.8747867271015869
  0.8750000000000000  0.1250000000000000  0.3747867271015869
  0.8750000000000000  0.1250000000000000  0.8747867271015869
  0.8750000000000000  0.6250000000000000  0.3747867271015869
  0.8750000000000000  0.6250000000000000  0.8747867271015869
  0.2500000000000000  0.0000000000000000  0.2502132728984131
  0.2500000000000000  0.0000000000000000  0.7502132728984131
  0.2500000000000000  0.5000000000000000  0.2502132728984131
  0.2500000000000000  0.5000000000000000  0.7502132728984131
  0.7500000000000000  0.0000000000000000  0.2502132728984131
  0.7500000000000000  0.0000000000000000  0.7502132728984131
  0.7500000000000000  0.5000000000000000  0.2502132728984131
  0.7500000000000000  0.5000000000000000  0.7502132728984131
  0.1250000000000000  0.3750000000000000  0.3747867271015869
  0.1250000000000000  0.3750000000000000  0.8747867271015869
  0.1250000000000000  0.8750000000000000  0.3747867271015869
  0.1250000000000000  0.8750000000000000  0.8747867271015869
  0.6250000000000000  0.3750000000000000  0.3747867271015869
  0.6250000000000000  0.3750000000000000  0.8747867271015869
  0.6250000000000000  0.8750000000000000  0.3747867271015869
  0.6250000000000000  0.8750000000000000  0.8747867271015869
  0.2500000000000000  0.2500000000000000  0.0002132728984131
  0.2500000000000000  0.2500000000000000  0.5002132728984131
  0.2500000000000000  0.7500000000000000  0.0002132728984131
  0.2500000000000000  0.7500000000000000  0.5002132728984131
  0.7500000000000000  0.2500000000000000  0.0002132728984131
  0.7500000000000000  0.2500000000000000  0.5002132728984131
  0.7500000000000000  0.7500000000000000  0.0002132728984131
  0.7500000000000000  0.7500000000000000  0.5002132728984131
  0.1250000000000000  0.1250000000000000  0.1247867271015869
  0.1250000000000000  0.1250000000000000  0.6247867271015869
  0.1250000000000000  0.6250000000000000  0.1247867271015869
  0.1250000000000000  0.6250000000000000  0.6247867271015869
  0.6250000000000000  0.1250000000000000  0.1247867271015869
  0.6250000000000000  0.1250000000000000  0.6247867271015869
  0.6250000000000000  0.6250000000000000  0.1247867271015869
  0.6250000000000000  0.6250000000000000  0.6247867271015869
 
  0.00000000E+00  0.00000000E+00  0.00000000E+00
  0.00000000E+00  0.00000000E+00  0.00000000E+00
  0.00000000E+00  0.00000000E+00  0.00000000E+00
  0.00000000E+00  0.00000000E+00  0.00000000E+00
  0.00000000E+00  0.00000000E+00  0.00000000E+00
  0.00000000E+00  0.00000000E+00  0.00000000E+00
  0.00000000E+00  0.00000000E+00  0.00000000E+00
  0.00000000E+00  0.00000000E+00  0.00000000E+00
  0.00000000E+00  0.00000000E+00  0.00000000E+00
  0.00000000E+00  0.00000000E+00  0.00000000E+00
  0.00000000E+00  0.00000000E+00  0.00000000E+00
  0.00000000E+00  0.00000000E+00  0.00000000E+00
  0.00000000E+00  0.00000000E+00  0.00000000E+00
  0.00000000E+00  0.00000000E+00  0.00000000E+00
  0.00000000E+00  0.00000000E+00  0.00000000E+00
  0.00000000E+00  0.00000000E+00  0.00000000E+00
  0.00000000E+00  0.00000000E+00  0.00000000E+00
  0.00000000E+00  0.00000000E+00  0.00000000E+00
  0.00000000E+00  0.00000000E+00  0.00000000E+00
  0.00000000E+00  0.00000000E+00  0.00000000E+00
  0.00000000E+00  0.00000000E+00  0.00000000E+00
  0.00000000E+00  0.00000000E+00  0.00000000E+00
  0.00000000E+00  0.00000000E+00  0.00000000E+00
  0.00000000E+00  0.00000000E+00  0.00000000E+00
  0.00000000E+00  0.00000000E+00  0.00000000E+00
  0.00000000E+00  0.00000000E+00  0.00000000E+00
  0.00000000E+00  0.00000000E+00  0.00000000E+00
  0.00000000E+00  0.00000000E+00  0.00000000E+00
  0.00000000E+00  0.00000000E+00  0.00000000E+00
  0.00000000E+00  0.00000000E+00  0.00000000E+00
  0.00000000E+00  0.00000000E+00  0.00000000E+00
  0.00000000E+00  0.00000000E+00  0.00000000E+00
  0.00000000E+00  0.00000000E+00  0.00000000E+00
  0.00000000E+00  0.00000000E+00  0.00000000E+00
  0.00000000E+00  0.00000000E+00  0.00000000E+00
  0.00000000E+00  0.00000000E+00  0.00000000E+00
  0.00000000E+00  0.00000000E+00  0.00000000E+00
  0.00000000E+00  0.00000000E+00  0.00000000E+00
  0.00000000E+00  0.00000000E+00  0.00000000E+00
  0.00000000E+00  0.00000000E+00  0.00000000E+00
  0.00000000E+00  0.00000000E+00  0.00000000E+00
  0.00000000E+00  0.00000000E+00  0.00000000E+00
  0.00000000E+00  0.00000000E+00  0.00000000E+00
  0.00000000E+00  0.00000000E+00  0.00000000E+00
  0.00000000E+00  0.00000000E+00  0.00000000E+00
  0.00000000E+00  0.00000000E+00  0.00000000E+00
  0.00000000E+00  0.00000000E+00  0.00000000E+00
  0.00000000E+00  0.00000000E+00  0.00000000E+00
  0.00000000E+00  0.00000000E+00  0.00000000E+00
  0.00000000E+00  0.00000000E+00  0.00000000E+00
  0.00000000E+00  0.00000000E+00  0.00000000E+00
  0.00000000E+00  0.00000000E+00  0.00000000E+00
  0.00000000E+00  0.00000000E+00  0.00000000E+00
  0.00000000E+00  0.00000000E+00  0.00000000E+00
  0.00000000E+00  0.00000000E+00  0.00000000E+00
  0.00000000E+00  0.00000000E+00  0.00000000E+00
  0.00000000E+00  0.00000000E+00  0.00000000E+00
  0.00000000E+00  0.00000000E+00  0.00000000E+00
  0.00000000E+00  0.00000000E+00  0.00000000E+00
  0.00000000E+00  0.00000000E+00  0.00000000E+00
  0.00000000E+00  0.00000000E+00  0.00000000E+00
  0.00000000E+00  0.00000000E+00  0.00000000E+00
  0.00000000E+00  0.00000000E+00  0.00000000E+00
  0.00000000E+00  0.00000000E+00  0.00000000E+00
