Si8                                     
   1.00000014768065     
    10.6920680000000008    0.0265970000000000    0.0000000000000000
     0.0265970000000000   10.6388739999999995    0.0000000000000000
     0.0000000000000000    0.0000000000000000   10.6388739999999995
   Si
    64
Direct
  0.0000000000000000  0.0000000000000000  0.0001985735807964
  0.0000000000000000  0.0000000000000000  0.5001985735807963
  0.0000000000000000  0.5000000000000000  0.0001985735807964
  0.0000000000000000  0.5000000000000000  0.5001985735807963
  0.5000000000000000  0.0000000000000000  0.0001985735807964
  0.5000000000000000  0.0000000000000000  0.5001985735807963
  0.5000000000000000  0.5000000000000000  0.0001985735807964
  0.5000000000000000  0.5000000000000000  0.5001985735807963
  0.3750000000000000  0.3750000000000000  0.1248014264192036
  0.3750000000000000  0.3750000000000000  0.6248014264192037
  0.3750000000000000  0.8750000000000000  0.1248014264192036
  0.3750000000000000  0.8750000000000000  0.6248014264192037
  0.8750000000000000  0.3750000000000000  0.1248014264192036
  0.8750000000000000  0.3750000000000000  0.6248014264192037
  0.8750000000000000  0.8750000000000000  0.1248014264192036
  0.8750000000000000  0.8750000000000000  0.6248014264192037
  0.0000000000000000  0.2500000000000000  0.2501985735807964
  0.0000000000000000  0.2500000000000000  0.7501985735807963
  0.0000000000000000  0.7500000000000000  0.2501985735807964
  0.0000000000000000  0.7500000000000000  0.7501985735807963
  0.5000000000000000  0.2500000000000000  0.2501985735807964
  0.5000000000000000  0.2500000000000000  0.7501985735807963
  0.5000000000000000  0.7500000000000000  0.2501985735807964
  0.5000000000000000  0.7500000000000000  0.7501985735807963
  0.3750000000000000  0.1250000000000000  0.3748014264192036
  0.3750000000000000  0.1250000000000000  0.8748014264192037
  0.3750000000000000  0.6250000000000000  0.3748014264192036
  0.3750000000000000  0.6250000000000000  0.8748014264192037
  0.8750000000000000  0.1250000000000000  0.3748014264192036
  0.8750000000000000  0.1250000000000000  0.8748014264192037
  0.8750000000000000  0.6250000000000000  0.3748014264192036
  0.8750000000000000  0.6250000000000000  0.8748014264192037
  0.2500000000000000  0.0000000000000000  0.2501985735807964
  0.2500000000000000  0.0000000000000000  0.7501985735807963
  0.2500000000000000  0.5000000000000000  0.2501985735807964
  0.2500000000000000  0.5000000000000000  0.7501985735807963
  0.7500000000000000  0.0000000000000000  0.2501985735807964
  0.7500000000000000  0.0000000000000000  0.7501985735807963
  0.7500000000000000  0.5000000000000000  0.2501985735807964
  0.7500000000000000  0.5000000000000000  0.7501985735807963
  0.1250000000000000  0.3750000000000000  0.3748014264192036
  0.1250000000000000  0.3750000000000000  0.8748014264192037
  0.1250000000000000  0.8750000000000000  0.3748014264192036
  0.1250000000000000  0.8750000000000000  0.8748014264192037
  0.6250000000000000  0.3750000000000000  0.3748014264192036
  0.6250000000000000  0.3750000000000000  0.8748014264192037
  0.6250000000000000  0.8750000000000000  0.3748014264192036
  0.6250000000000000  0.8750000000000000  0.8748014264192037
  0.2500000000000000  0.2500000000000000  0.0001985735807964
  0.2500000000000000  0.2500000000000000  0.5001985735807963
  0.2500000000000000  0.7500000000000000  0.0001985735807964
  0.2500000000000000  0.7500000000000000  0.5001985735807963
  0.7500000000000000  0.2500000000000000  0.0001985735807964
  0.7500000000000000  0.2500000000000000  0.5001985735807963
  0.7500000000000000  0.7500000000000000  0.0001985735807964
  0.7500000000000000  0.7500000000000000  0.5001985735807963
  0.1250000000000000  0.1250000000000000  0.1248014264192036
  0.1250000000000000  0.1250000000000000  0.6248014264192037
  0.1250000000000000  0.6250000000000000  0.1248014264192036
  0.1250000000000000  0.6250000000000000  0.6248014264192037
  0.6250000000000000  0.1250000000000000  0.1248014264192036
  0.6250000000000000  0.1250000000000000  0.6248014264192037
  0.6250000000000000  0.6250000000000000  0.1248014264192036
  0.6250000000000000  0.6250000000000000  0.6248014264192037
 
  0.00000000E+00  0.00000000E+00  0.00000000E+00
  0.00000000E+00  0.00000000E+00  0.00000000E+00
  0.00000000E+00  0.00000000E+00  0.00000000E+00
  0.00000000E+00  0.00000000E+00  0.00000000E+00
  0.00000000E+00  0.00000000E+00  0.00000000E+00
  0.00000000E+00  0.00000000E+00  0.00000000E+00
  0.00000000E+00  0.00000000E+00  0.00000000E+00
  0.00000000E+00  0.00000000E+00  0.00000000E+00
  0.00000000E+00  0.00000000E+00  0.00000000E+00
  0.00000000E+00  0.00000000E+00  0.00000000E+00
  0.00000000E+00  0.00000000E+00  0.00000000E+00
  0.00000000E+00  0.00000000E+00  0.00000000E+00
  0.00000000E+00  0.00000000E+00  0.00000000E+00
  0.00000000E+00  0.00000000E+00  0.00000000E+00
  0.00000000E+00  0.00000000E+00  0.00000000E+00
  0.00000000E+00  0.00000000E+00  0.00000000E+00
  0.00000000E+00  0.00000000E+00  0.00000000E+00
  0.00000000E+00  0.00000000E+00  0.00000000E+00
  0.00000000E+00  0.00000000E+00  0.00000000E+00
  0.00000000E+00  0.00000000E+00  0.00000000E+00
  0.00000000E+00  0.00000000E+00  0.00000000E+00
  0.00000000E+00  0.00000000E+00  0.00000000E+00
  0.00000000E+00  0.00000000E+00  0.00000000E+00
  0.00000000E+00  0.00000000E+00  0.00000000E+00
  0.00000000E+00  0.00000000E+00  0.00000000E+00
  0.00000000E+00  0.00000000E+00  0.00000000E+00
  0.00000000E+00  0.00000000E+00  0.00000000E+00
  0.00000000E+00  0.00000000E+00  0.00000000E+00
  0.00000000E+00  0.00000000E+00  0.00000000E+00
  0.00000000E+00  0.00000000E+00  0.00000000E+00
  0.00000000E+00  0.00000000E+00  0.00000000E+00
  0.00000000E+00  0.00000000E+00  0.00000000E+00
  0.00000000E+00  0.00000000E+00  0.00000000E+00
  0.00000000E+00  0.00000000E+00  0.00000000E+00
  0.00000000E+00  0.00000000E+00  0.00000000E+00
  0.00000000E+00  0.00000000E+00  0.00000000E+00
  0.00000000E+00  0.00000000E+00  0.00000000E+00
  0.00000000E+00  0.00000000E+00  0.00000000E+00
  0.00000000E+00  0.00000000E+00  0.00000000E+00
  0.00000000E+00  0.00000000E+00  0.00000000E+00
  0.00000000E+00  0.00000000E+00  0.00000000E+00
  0.00000000E+00  0.00000000E+00  0.00000000E+00
  0.00000000E+00  0.00000000E+00  0.00000000E+00
  0.00000000E+00  0.00000000E+00  0.00000000E+00
  0.00000000E+00  0.00000000E+00  0.00000000E+00
  0.00000000E+00  0.00000000E+00  0.00000000E+00
  0.00000000E+00  0.00000000E+00  0.00000000E+00
  0.00000000E+00  0.00000000E+00  0.00000000E+00
  0.00000000E+00  0.00000000E+00  0.00000000E+00
  0.00000000E+00  0.00000000E+00  0.00000000E+00
  0.00000000E+00  0.00000000E+00  0.00000000E+00
  0.00000000E+00  0.00000000E+00  0.00000000E+00
  0.00000000E+00  0.00000000E+00  0.00000000E+00
  0.00000000E+00  0.00000000E+00  0.00000000E+00
  0.00000000E+00  0.00000000E+00  0.00000000E+00
  0.00000000E+00  0.00000000E+00  0.00000000E+00
  0.00000000E+00  0.00000000E+00  0.00000000E+00
  0.00000000E+00  0.00000000E+00  0.00000000E+00
  0.00000000E+00  0.00000000E+00  0.00000000E+00
  0.00000000E+00  0.00000000E+00  0.00000000E+00
  0.00000000E+00  0.00000000E+00  0.00000000E+00
  0.00000000E+00  0.00000000E+00  0.00000000E+00
  0.00000000E+00  0.00000000E+00  0.00000000E+00
  0.00000000E+00  0.00000000E+00  0.00000000E+00
