Si8                                     
   1.00000014768065     
    10.7539210000000001    0.0267510000000000    0.0000000000000000
     0.0267510000000000   10.7004190000000001    0.0000000000000000
     0.0000000000000000    0.0000000000000000   10.7004190000000001
   Si
    64
Direct
  0.0000000000000000  0.0000000000000000  0.0001896237671521
  0.0000000000000000  0.0000000000000000  0.5001896237671521
  0.0000000000000000  0.5000000000000000  0.0001896237671521
  0.0000000000000000  0.5000000000000000  0.5001896237671521
  0.5000000000000000  0.0000000000000000  0.0001896237671521
  0.5000000000000000  0.0000000000000000  0.5001896237671521
  0.5000000000000000  0.5000000000000000  0.0001896237671521
  0.5000000000000000  0.5000000000000000  0.5001896237671521
  0.3750000000000000  0.3750000000000000  0.1248103762328479
  0.3750000000000000  0.3750000000000000  0.6248103762328479
  0.3750000000000000  0.8750000000000000  0.1248103762328479
  0.3750000000000000  0.8750000000000000  0.6248103762328479
  0.8750000000000000  0.3750000000000000  0.1248103762328479
  0.8750000000000000  0.3750000000000000  0.6248103762328479
  0.8750000000000000  0.8750000000000000  0.1248103762328479
  0.8750000000000000  0.8750000000000000  0.6248103762328479
  0.0000000000000000  0.2500000000000000  0.2501896237671521
  0.0000000000000000  0.2500000000000000  0.7501896237671521
  0.0000000000000000  0.7500000000000000  0.2501896237671521
  0.0000000000000000  0.7500000000000000  0.7501896237671521
  0.5000000000000000  0.2500000000000000  0.2501896237671521
  0.5000000000000000  0.2500000000000000  0.7501896237671521
  0.5000000000000000  0.7500000000000000  0.2501896237671521
  0.5000000000000000  0.7500000000000000  0.7501896237671521
  0.3750000000000000  0.1250000000000000  0.3748103762328479
  0.3750000000000000  0.1250000000000000  0.8748103762328479
  0.3750000000000000  0.6250000000000000  0.3748103762328479
  0.3750000000000000  0.6250000000000000  0.8748103762328479
  0.8750000000000000  0.1250000000000000  0.3748103762328479
  0.8750000000000000  0.1250000000000000  0.8748103762328479
  0.8750000000000000  0.6250000000000000  0.3748103762328479
  0.8750000000000000  0.6250000000000000  0.8748103762328479
  0.2500000000000000  0.0000000000000000  0.2501896237671521
  0.2500000000000000  0.0000000000000000  0.7501896237671521
  0.2500000000000000  0.5000000000000000  0.2501896237671521
  0.2500000000000000  0.5000000000000000  0.7501896237671521
  0.7500000000000000  0.0000000000000000  0.2501896237671521
  0.7500000000000000  0.0000000000000000  0.7501896237671521
  0.7500000000000000  0.5000000000000000  0.2501896237671521
  0.7500000000000000  0.5000000000000000  0.7501896237671521
  0.1250000000000000  0.3750000000000000  0.3748103762328479
  0.1250000000000000  0.3750000000000000  0.8748103762328479
  0.1250000000000000  0.8750000000000000  0.3748103762328479
  0.1250000000000000  0.8750000000000000  0.8748103762328479
  0.6250000000000000  0.3750000000000000  0.3748103762328479
  0.6250000000000000  0.3750000000000000  0.8748103762328479
  0.6250000000000000  0.8750000000000000  0.3748103762328479
  0.6250000000000000  0.8750000000000000  0.8748103762328479
  0.2500000000000000  0.2500000000000000  0.0001896237671521
  0.2500000000000000  0.2500000000000000  0.5001896237671521
  0.2500000000000000  0.7500000000000000  0.0001896237671521
  0.2500000000000000  0.7500000000000000  0.5001896237671521
  0.7500000000000000  0.2500000000000000  0.0001896237671521
  0.7500000000000000  0.2500000000000000  0.5001896237671521
  0.7500000000000000  0.7500000000000000  0.0001896237671521
  0.7500000000000000  0.7500000000000000  0.5001896237671521
  0.1250000000000000  0.1250000000000000  0.1248103762328479
  0.1250000000000000  0.1250000000000000  0.6248103762328479
  0.1250000000000000  0.6250000000000000  0.1248103762328479
  0.1250000000000000  0.6250000000000000  0.6248103762328479
  0.6250000000000000  0.1250000000000000  0.1248103762328479
  0.6250000000000000  0.1250000000000000  0.6248103762328479
  0.6250000000000000  0.6250000000000000  0.1248103762328479
  0.6250000000000000  0.6250000000000000  0.6248103762328479
 
  0.00000000E+00  0.00000000E+00  0.00000000E+00
  0.00000000E+00  0.00000000E+00  0.00000000E+00
  0.00000000E+00  0.00000000E+00  0.00000000E+00
  0.00000000E+00  0.00000000E+00  0.00000000E+00
  0.00000000E+00  0.00000000E+00  0.00000000E+00
  0.00000000E+00  0.00000000E+00  0.00000000E+00
  0.00000000E+00  0.00000000E+00  0.00000000E+00
  0.00000000E+00  0.00000000E+00  0.00000000E+00
  0.00000000E+00  0.00000000E+00  0.00000000E+00
  0.00000000E+00  0.00000000E+00  0.00000000E+00
  0.00000000E+00  0.00000000E+00  0.00000000E+00
  0.00000000E+00  0.00000000E+00  0.00000000E+00
  0.00000000E+00  0.00000000E+00  0.00000000E+00
  0.00000000E+00  0.00000000E+00  0.00000000E+00
  0.00000000E+00  0.00000000E+00  0.00000000E+00
  0.00000000E+00  0.00000000E+00  0.00000000E+00
  0.00000000E+00  0.00000000E+00  0.00000000E+00
  0.00000000E+00  0.00000000E+00  0.00000000E+00
  0.00000000E+00  0.00000000E+00  0.00000000E+00
  0.00000000E+00  0.00000000E+00  0.00000000E+00
  0.00000000E+00  0.00000000E+00  0.00000000E+00
  0.00000000E+00  0.00000000E+00  0.00000000E+00
  0.00000000E+00  0.00000000E+00  0.00000000E+00
  0.00000000E+00  0.00000000E+00  0.00000000E+00
  0.00000000E+00  0.00000000E+00  0.00000000E+00
  0.00000000E+00  0.00000000E+00  0.00000000E+00
  0.00000000E+00  0.00000000E+00  0.00000000E+00
  0.00000000E+00  0.00000000E+00  0.00000000E+00
  0.00000000E+00  0.00000000E+00  0.00000000E+00
  0.00000000E+00  0.00000000E+00  0.00000000E+00
  0.00000000E+00  0.00000000E+00  0.00000000E+00
  0.00000000E+00  0.00000000E+00  0.00000000E+00
  0.00000000E+00  0.00000000E+00  0.00000000E+00
  0.00000000E+00  0.00000000E+00  0.00000000E+00
  0.00000000E+00  0.00000000E+00  0.00000000E+00
  0.00000000E+00  0.00000000E+00  0.00000000E+00
  0.00000000E+00  0.00000000E+00  0.00000000E+00
  0.00000000E+00  0.00000000E+00  0.00000000E+00
  0.00000000E+00  0.00000000E+00  0.00000000E+00
  0.00000000E+00  0.00000000E+00  0.00000000E+00
  0.00000000E+00  0.00000000E+00  0.00000000E+00
  0.00000000E+00  0.00000000E+00  0.00000000E+00
  0.00000000E+00  0.00000000E+00  0.00000000E+00
  0.00000000E+00  0.00000000E+00  0.00000000E+00
  0.00000000E+00  0.00000000E+00  0.00000000E+00
  0.00000000E+00  0.00000000E+00  0.00000000E+00
  0.00000000E+00  0.00000000E+00  0.00000000E+00
  0.00000000E+00  0.00000000E+00  0.00000000E+00
  0.00000000E+00  0.00000000E+00  0.00000000E+00
  0.00000000E+00  0.00000000E+00  0.00000000E+00
  0.00000000E+00  0.00000000E+00  0.00000000E+00
  0.00000000E+00  0.00000000E+00  0.00000000E+00
  0.00000000E+00  0.00000000E+00  0.00000000E+00
  0.00000000E+00  0.00000000E+00  0.00000000E+00
  0.00000000E+00  0.00000000E+00  0.00000000E+00
  0.00000000E+00  0.00000000E+00  0.00000000E+00
  0.00000000E+00  0.00000000E+00  0.00000000E+00
  0.00000000E+00  0.00000000E+00  0.00000000E+00
  0.00000000E+00  0.00000000E+00  0.00000000E+00
  0.00000000E+00  0.00000000E+00  0.00000000E+00
  0.00000000E+00  0.00000000E+00  0.00000000E+00
  0.00000000E+00  0.00000000E+00  0.00000000E+00
  0.00000000E+00  0.00000000E+00  0.00000000E+00
  0.00000000E+00  0.00000000E+00  0.00000000E+00
