Si8                                     
   1.00000014768065     
    10.5934150000000002   -0.0535020000000000    0.0000000000000000
    -0.0535020000000000   10.7004190000000001    0.0000000000000000
     0.0000000000000000    0.0000000000000000   10.7004190000000001
   Si
    64
Direct
  0.0000000000000000  0.0000000000000000  0.9996066110674199
  0.0000000000000000  0.0000000000000000  0.4996066110674199
  0.0000000000000000  0.5000000000000000  0.9996066110674199
  0.0000000000000000  0.5000000000000000  0.4996066110674199
  0.5000000000000000  0.0000000000000000  0.9996066110674199
  0.5000000000000000  0.0000000000000000  0.4996066110674199
  0.5000000000000000  0.5000000000000000  0.9996066110674199
  0.5000000000000000  0.5000000000000000  0.4996066110674199
  0.3750000000000000  0.3750000000000000  0.1253933889325801
  0.3750000000000000  0.3750000000000000  0.6253933889325801
  0.3750000000000000  0.8750000000000000  0.1253933889325801
  0.3750000000000000  0.8750000000000000  0.6253933889325801
  0.8750000000000000  0.3750000000000000  0.1253933889325801
  0.8750000000000000  0.3750000000000000  0.6253933889325801
  0.8750000000000000  0.8750000000000000  0.1253933889325801
  0.8750000000000000  0.8750000000000000  0.6253933889325801
  0.0000000000000000  0.2500000000000000  0.2496066110674199
  0.0000000000000000  0.2500000000000000  0.7496066110674199
  0.0000000000000000  0.7500000000000000  0.2496066110674199
  0.0000000000000000  0.7500000000000000  0.7496066110674199
  0.5000000000000000  0.2500000000000000  0.2496066110674199
  0.5000000000000000  0.2500000000000000  0.7496066110674199
  0.5000000000000000  0.7500000000000000  0.2496066110674199
  0.5000000000000000  0.7500000000000000  0.7496066110674199
  0.3750000000000000  0.1250000000000000  0.3753933889325801
  0.3750000000000000  0.1250000000000000  0.8753933889325801
  0.3750000000000000  0.6250000000000000  0.3753933889325801
  0.3750000000000000  0.6250000000000000  0.8753933889325801
  0.8750000000000000  0.1250000000000000  0.3753933889325801
  0.8750000000000000  0.1250000000000000  0.8753933889325801
  0.8750000000000000  0.6250000000000000  0.3753933889325801
  0.8750000000000000  0.6250000000000000  0.8753933889325801
  0.2500000000000000  0.0000000000000000  0.2496066110674199
  0.2500000000000000  0.0000000000000000  0.7496066110674199
  0.2500000000000000  0.5000000000000000  0.2496066110674199
  0.2500000000000000  0.5000000000000000  0.7496066110674199
  0.7500000000000000  0.0000000000000000  0.2496066110674199
  0.7500000000000000  0.0000000000000000  0.7496066110674199
  0.7500000000000000  0.5000000000000000  0.2496066110674199
  0.7500000000000000  0.5000000000000000  0.7496066110674199
  0.1250000000000000  0.3750000000000000  0.3753933889325801
  0.1250000000000000  0.3750000000000000  0.8753933889325801
  0.1250000000000000  0.8750000000000000  0.3753933889325801
  0.1250000000000000  0.8750000000000000  0.8753933889325801
  0.6250000000000000  0.3750000000000000  0.3753933889325801
  0.6250000000000000  0.3750000000000000  0.8753933889325801
  0.6250000000000000  0.8750000000000000  0.3753933889325801
  0.6250000000000000  0.8750000000000000  0.8753933889325801
  0.2500000000000000  0.2500000000000000  0.9996066110674199
  0.2500000000000000  0.2500000000000000  0.4996066110674199
  0.2500000000000000  0.7500000000000000  0.9996066110674199
  0.2500000000000000  0.7500000000000000  0.4996066110674199
  0.7500000000000000  0.2500000000000000  0.9996066110674199
  0.7500000000000000  0.2500000000000000  0.4996066110674199
  0.7500000000000000  0.7500000000000000  0.9996066110674199
  0.7500000000000000  0.7500000000000000  0.4996066110674199
  0.1250000000000000  0.1250000000000000  0.1253933889325801
  0.1250000000000000  0.1250000000000000  0.6253933889325801
  0.1250000000000000  0.6250000000000000  0.1253933889325801
  0.1250000000000000  0.6250000000000000  0.6253933889325801
  0.6250000000000000  0.1250000000000000  0.1253933889325801
  0.6250000000000000  0.1250000000000000  0.6253933889325801
  0.6250000000000000  0.6250000000000000  0.1253933889325801
  0.6250000000000000  0.6250000000000000  0.6253933889325801
 
  0.00000000E+00  0.00000000E+00  0.00000000E+00
  0.00000000E+00  0.00000000E+00  0.00000000E+00
  0.00000000E+00  0.00000000E+00  0.00000000E+00
  0.00000000E+00  0.00000000E+00  0.00000000E+00
  0.00000000E+00  0.00000000E+00  0.00000000E+00
  0.00000000E+00  0.00000000E+00  0.00000000E+00
  0.00000000E+00  0.00000000E+00  0.00000000E+00
  0.00000000E+00  0.00000000E+00  0.00000000E+00
  0.00000000E+00  0.00000000E+00  0.00000000E+00
  0.00000000E+00  0.00000000E+00  0.00000000E+00
  0.00000000E+00  0.00000000E+00  0.00000000E+00
  0.00000000E+00  0.00000000E+00  0.00000000E+00
  0.00000000E+00  0.00000000E+00  0.00000000E+00
  0.00000000E+00  0.00000000E+00  0.00000000E+00
  0.00000000E+00  0.00000000E+00  0.00000000E+00
  0.00000000E+00  0.00000000E+00  0.00000000E+00
  0.00000000E+00  0.00000000E+00  0.00000000E+00
  0.00000000E+00  0.00000000E+00  0.00000000E+00
  0.00000000E+00  0.00000000E+00  0.00000000E+00
  0.00000000E+00  0.00000000E+00  0.00000000E+00
  0.00000000E+00  0.00000000E+00  0.00000000E+00
  0.00000000E+00  0.00000000E+00  0.00000000E+00
  0.00000000E+00  0.00000000E+00  0.00000000E+00
  0.00000000E+00  0.00000000E+00  0.00000000E+00
  0.00000000E+00  0.00000000E+00  0.00000000E+00
  0.00000000E+00  0.00000000E+00  0.00000000E+00
  0.00000000E+00  0.00000000E+00  0.00000000E+00
  0.00000000E+00  0.00000000E+00  0.00000000E+00
  0.00000000E+00  0.00000000E+00  0.00000000E+00
  0.00000000E+00  0.00000000E+00  0.00000000E+00
  0.00000000E+00  0.00000000E+00  0.00000000E+00
  0.00000000E+00  0.00000000E+00  0.00000000E+00
  0.00000000E+00  0.00000000E+00  0.00000000E+00
  0.00000000E+00  0.00000000E+00  0.00000000E+00
  0.00000000E+00  0.00000000E+00  0.00000000E+00
  0.00000000E+00  0.00000000E+00  0.00000000E+00
  0.00000000E+00  0.00000000E+00  0.00000000E+00
  0.00000000E+00  0.00000000E+00  0.00000000E+00
  0.00000000E+00  0.00000000E+00  0.00000000E+00
  0.00000000E+00  0.00000000E+00  0.00000000E+00
  0.00000000E+00  0.00000000E+00  0.00000000E+00
  0.00000000E+00  0.00000000E+00  0.00000000E+00
  0.00000000E+00  0.00000000E+00  0.00000000E+00
  0.00000000E+00  0.00000000E+00  0.00000000E+00
  0.00000000E+00  0.00000000E+00  0.00000000E+00
  0.00000000E+00  0.00000000E+00  0.00000000E+00
  0.00000000E+00  0.00000000E+00  0.00000000E+00
  0.00000000E+00  0.00000000E+00  0.00000000E+00
  0.00000000E+00  0.00000000E+00  0.00000000E+00
  0.00000000E+00  0.00000000E+00  0.00000000E+00
  0.00000000E+00  0.00000000E+00  0.00000000E+00
  0.00000000E+00  0.00000000E+00  0.00000000E+00
  0.00000000E+00  0.00000000E+00  0.00000000E+00
  0.00000000E+00  0.00000000E+00  0.00000000E+00
  0.00000000E+00  0.00000000E+00  0.00000000E+00
  0.00000000E+00  0.00000000E+00  0.00000000E+00
  0.00000000E+00  0.00000000E+00  0.00000000E+00
  0.00000000E+00  0.00000000E+00  0.00000000E+00
  0.00000000E+00  0.00000000E+00  0.00000000E+00
  0.00000000E+00  0.00000000E+00  0.00000000E+00
  0.00000000E+00  0.00000000E+00  0.00000000E+00
  0.00000000E+00  0.00000000E+00  0.00000000E+00
  0.00000000E+00  0.00000000E+00  0.00000000E+00
  0.00000000E+00  0.00000000E+00  0.00000000E+00
