Si8                                     
   1.00000014768065     
    10.9062459999999994    0.0539910000000000    0.0000000000000000
     0.0539910000000000   10.7982630000000004    0.0000000000000000
     0.0000000000000000    0.0000000000000000   10.7982630000000004
   Si
    64
Direct
  0.0000000000000000  0.0000000000000000  0.0003491614925035
  0.0000000000000000  0.0000000000000000  0.5003491614925034
  0.0000000000000000  0.5000000000000000  0.0003491614925035
  0.0000000000000000  0.5000000000000000  0.5003491614925034
  0.5000000000000000  0.0000000000000000  0.0003491614925035
  0.5000000000000000  0.0000000000000000  0.5003491614925034
  0.5000000000000000  0.5000000000000000  0.0003491614925035
  0.5000000000000000  0.5000000000000000  0.5003491614925034
  0.3750000000000000  0.3750000000000000  0.1246508385074965
  0.3750000000000000  0.3750000000000000  0.6246508385074966
  0.3750000000000000  0.8750000000000000  0.1246508385074965
  0.3750000000000000  0.8750000000000000  0.6246508385074966
  0.8750000000000000  0.3750000000000000  0.1246508385074965
  0.8750000000000000  0.3750000000000000  0.6246508385074966
  0.8750000000000000  0.8750000000000000  0.1246508385074965
  0.8750000000000000  0.8750000000000000  0.6246508385074966
  0.0000000000000000  0.2500000000000000  0.2503491614925035
  0.0000000000000000  0.2500000000000000  0.7503491614925034
  0.0000000000000000  0.7500000000000000  0.2503491614925035
  0.0000000000000000  0.7500000000000000  0.7503491614925034
  0.5000000000000000  0.2500000000000000  0.2503491614925035
  0.5000000000000000  0.2500000000000000  0.7503491614925034
  0.5000000000000000  0.7500000000000000  0.2503491614925035
  0.5000000000000000  0.7500000000000000  0.7503491614925034
  0.3750000000000000  0.1250000000000000  0.3746508385074965
  0.3750000000000000  0.1250000000000000  0.8746508385074966
  0.3750000000000000  0.6250000000000000  0.3746508385074965
  0.3750000000000000  0.6250000000000000  0.8746508385074966
  0.8750000000000000  0.1250000000000000  0.3746508385074965
  0.8750000000000000  0.1250000000000000  0.8746508385074966
  0.8750000000000000  0.6250000000000000  0.3746508385074965
  0.8750000000000000  0.6250000000000000  0.8746508385074966
  0.2500000000000000  0.0000000000000000  0.2503491614925035
  0.2500000000000000  0.0000000000000000  0.7503491614925034
  0.2500000000000000  0.5000000000000000  0.2503491614925035
  0.2500000000000000  0.5000000000000000  0.7503491614925034
  0.7500000000000000  0.0000000000000000  0.2503491614925035
  0.7500000000000000  0.0000000000000000  0.7503491614925034
  0.7500000000000000  0.5000000000000000  0.2503491614925035
  0.7500000000000000  0.5000000000000000  0.7503491614925034
  0.1250000000000000  0.3750000000000000  0.3746508385074965
  0.1250000000000000  0.3750000000000000  0.8746508385074966
  0.1250000000000000  0.8750000000000000  0.3746508385074965
  0.1250000000000000  0.8750000000000000  0.8746508385074966
  0.6250000000000000  0.3750000000000000  0.3746508385074965
  0.6250000000000000  0.3750000000000000  0.8746508385074966
  0.6250000000000000  0.8750000000000000  0.3746508385074965
  0.6250000000000000  0.8750000000000000  0.8746508385074966
  0.2500000000000000  0.2500000000000000  0.0003491614925035
  0.2500000000000000  0.2500000000000000  0.5003491614925034
  0.2500000000000000  0.7500000000000000  0.0003491614925035
  0.2500000000000000  0.7500000000000000  0.5003491614925034
  0.7500000000000000  0.2500000000000000  0.0003491614925035
  0.7500000000000000  0.2500000000000000  0.5003491614925034
  0.7500000000000000  0.7500000000000000  0.0003491614925035
  0.7500000000000000  0.7500000000000000  0.5003491614925034
  0.1250000000000000  0.1250000000000000  0.1246508385074965
  0.1250000000000000  0.1250000000000000  0.6246508385074966
  0.1250000000000000  0.6250000000000000  0.1246508385074965
  0.1250000000000000  0.6250000000000000  0.6246508385074966
  0.6250000000000000  0.1250000000000000  0.1246508385074965
  0.6250000000000000  0.1250000000000000  0.6246508385074966
  0.6250000000000000  0.6250000000000000  0.1246508385074965
  0.6250000000000000  0.6250000000000000  0.6246508385074966
 
  0.00000000E+00  0.00000000E+00  0.00000000E+00
  0.00000000E+00  0.00000000E+00  0.00000000E+00
  0.00000000E+00  0.00000000E+00  0.00000000E+00
  0.00000000E+00  0.00000000E+00  0.00000000E+00
  0.00000000E+00  0.00000000E+00  0.00000000E+00
  0.00000000E+00  0.00000000E+00  0.00000000E+00
  0.00000000E+00  0.00000000E+00  0.00000000E+00
  0.00000000E+00  0.00000000E+00  0.00000000E+00
  0.00000000E+00  0.00000000E+00  0.00000000E+00
  0.00000000E+00  0.00000000E+00  0.00000000E+00
  0.00000000E+00  0.00000000E+00  0.00000000E+00
  0.00000000E+00  0.00000000E+00  0.00000000E+00
  0.00000000E+00  0.00000000E+00  0.00000000E+00
  0.00000000E+00  0.00000000E+00  0.00000000E+00
  0.00000000E+00  0.00000000E+00  0.00000000E+00
  0.00000000E+00  0.00000000E+00  0.00000000E+00
  0.00000000E+00  0.00000000E+00  0.00000000E+00
  0.00000000E+00  0.00000000E+00  0.00000000E+00
  0.00000000E+00  0.00000000E+00  0.00000000E+00
  0.00000000E+00  0.00000000E+00  0.00000000E+00
  0.00000000E+00  0.00000000E+00  0.00000000E+00
  0.00000000E+00  0.00000000E+00  0.00000000E+00
  0.00000000E+00  0.00000000E+00  0.00000000E+00
  0.00000000E+00  0.00000000E+00  0.00000000E+00
  0.00000000E+00  0.00000000E+00  0.00000000E+00
  0.00000000E+00  0.00000000E+00  0.00000000E+00
  0.00000000E+00  0.00000000E+00  0.00000000E+00
  0.00000000E+00  0.00000000E+00  0.00000000E+00
  0.00000000E+00  0.00000000E+00  0.00000000E+00
  0.00000000E+00  0.00000000E+00  0.00000000E+00
  0.00000000E+00  0.00000000E+00  0.00000000E+00
  0.00000000E+00  0.00000000E+00  0.00000000E+00
  0.00000000E+00  0.00000000E+00  0.00000000E+00
  0.00000000E+00  0.00000000E+00  0.00000000E+00
  0.00000000E+00  0.00000000E+00  0.00000000E+00
  0.00000000E+00  0.00000000E+00  0.00000000E+00
  0.00000000E+00  0.00000000E+00  0.00000000E+00
  0.00000000E+00  0.00000000E+00  0.00000000E+00
  0.00000000E+00  0.00000000E+00  0.00000000E+00
  0.00000000E+00  0.00000000E+00  0.00000000E+00
  0.00000000E+00  0.00000000E+00  0.00000000E+00
  0.00000000E+00  0.00000000E+00  0.00000000E+00
  0.00000000E+00  0.00000000E+00  0.00000000E+00
  0.00000000E+00  0.00000000E+00  0.00000000E+00
  0.00000000E+00  0.00000000E+00  0.00000000E+00
  0.00000000E+00  0.00000000E+00  0.00000000E+00
  0.00000000E+00  0.00000000E+00  0.00000000E+00
  0.00000000E+00  0.00000000E+00  0.00000000E+00
  0.00000000E+00  0.00000000E+00  0.00000000E+00
  0.00000000E+00  0.00000000E+00  0.00000000E+00
  0.00000000E+00  0.00000000E+00  0.00000000E+00
  0.00000000E+00  0.00000000E+00  0.00000000E+00
  0.00000000E+00  0.00000000E+00  0.00000000E+00
  0.00000000E+00  0.00000000E+00  0.00000000E+00
  0.00000000E+00  0.00000000E+00  0.00000000E+00
  0.00000000E+00  0.00000000E+00  0.00000000E+00
  0.00000000E+00  0.00000000E+00  0.00000000E+00
  0.00000000E+00  0.00000000E+00  0.00000000E+00
  0.00000000E+00  0.00000000E+00  0.00000000E+00
  0.00000000E+00  0.00000000E+00  0.00000000E+00
  0.00000000E+00  0.00000000E+00  0.00000000E+00
  0.00000000E+00  0.00000000E+00  0.00000000E+00
  0.00000000E+00  0.00000000E+00  0.00000000E+00
  0.00000000E+00  0.00000000E+00  0.00000000E+00
