# INCAR for static
# Global parameters
SYSTEM = C8
ISTART = 0
ICHARG = 2
LREAL = Auto
PREC = Normal
LWAVE = .False.
LCHARG = .False.
ADDGRID = .True.
ENCUT = 520
# Electronic parameters
ISMEAR = -5
NELM = 60
NELMIN = 8
# Ionic parameters
EDIFF = 1e-06
NSW = 0
IBRION = -1
ISIF = 2
# other parameters
KPAR = 8
ALGO = Fast
