Si8                                     
   1.00000014768065     
    10.9801810000000000    0.0543570000000000    0.0000000000000000
     0.0543570000000000   10.8714659999999999    0.0000000000000000
     0.0000000000000000    0.0000000000000000   10.8714659999999999
   Si
    64
Direct
  0.0000000000000000  0.0000000000000000  0.0003278486266366
  0.0000000000000000  0.0000000000000000  0.5003278486266367
  0.0000000000000000  0.5000000000000000  0.0003278486266366
  0.0000000000000000  0.5000000000000000  0.5003278486266367
  0.5000000000000000  0.0000000000000000  0.0003278486266366
  0.5000000000000000  0.0000000000000000  0.5003278486266367
  0.5000000000000000  0.5000000000000000  0.0003278486266366
  0.5000000000000000  0.5000000000000000  0.5003278486266367
  0.3750000000000000  0.3750000000000000  0.1246721513733634
  0.3750000000000000  0.3750000000000000  0.6246721513733633
  0.3750000000000000  0.8750000000000000  0.1246721513733634
  0.3750000000000000  0.8750000000000000  0.6246721513733633
  0.8750000000000000  0.3750000000000000  0.1246721513733634
  0.8750000000000000  0.3750000000000000  0.6246721513733633
  0.8750000000000000  0.8750000000000000  0.1246721513733634
  0.8750000000000000  0.8750000000000000  0.6246721513733633
  0.0000000000000000  0.2500000000000000  0.2503278486266367
  0.0000000000000000  0.2500000000000000  0.7503278486266367
  0.0000000000000000  0.7500000000000000  0.2503278486266367
  0.0000000000000000  0.7500000000000000  0.7503278486266367
  0.5000000000000000  0.2500000000000000  0.2503278486266367
  0.5000000000000000  0.2500000000000000  0.7503278486266367
  0.5000000000000000  0.7500000000000000  0.2503278486266367
  0.5000000000000000  0.7500000000000000  0.7503278486266367
  0.3750000000000000  0.1250000000000000  0.3746721513733633
  0.3750000000000000  0.1250000000000000  0.8746721513733633
  0.3750000000000000  0.6250000000000000  0.3746721513733633
  0.3750000000000000  0.6250000000000000  0.8746721513733633
  0.8750000000000000  0.1250000000000000  0.3746721513733633
  0.8750000000000000  0.1250000000000000  0.8746721513733633
  0.8750000000000000  0.6250000000000000  0.3746721513733633
  0.8750000000000000  0.6250000000000000  0.8746721513733633
  0.2500000000000000  0.0000000000000000  0.2503278486266367
  0.2500000000000000  0.0000000000000000  0.7503278486266367
  0.2500000000000000  0.5000000000000000  0.2503278486266367
  0.2500000000000000  0.5000000000000000  0.7503278486266367
  0.7500000000000000  0.0000000000000000  0.2503278486266367
  0.7500000000000000  0.0000000000000000  0.7503278486266367
  0.7500000000000000  0.5000000000000000  0.2503278486266367
  0.7500000000000000  0.5000000000000000  0.7503278486266367
  0.1250000000000000  0.3750000000000000  0.3746721513733633
  0.1250000000000000  0.3750000000000000  0.8746721513733633
  0.1250000000000000  0.8750000000000000  0.3746721513733633
  0.1250000000000000  0.8750000000000000  0.8746721513733633
  0.6250000000000000  0.3750000000000000  0.3746721513733633
  0.6250000000000000  0.3750000000000000  0.8746721513733633
  0.6250000000000000  0.8750000000000000  0.3746721513733633
  0.6250000000000000  0.8750000000000000  0.8746721513733633
  0.2500000000000000  0.2500000000000000  0.0003278486266366
  0.2500000000000000  0.2500000000000000  0.5003278486266367
  0.2500000000000000  0.7500000000000000  0.0003278486266366
  0.2500000000000000  0.7500000000000000  0.5003278486266367
  0.7500000000000000  0.2500000000000000  0.0003278486266366
  0.7500000000000000  0.2500000000000000  0.5003278486266367
  0.7500000000000000  0.7500000000000000  0.0003278486266366
  0.7500000000000000  0.7500000000000000  0.5003278486266367
  0.1250000000000000  0.1250000000000000  0.1246721513733634
  0.1250000000000000  0.1250000000000000  0.6246721513733633
  0.1250000000000000  0.6250000000000000  0.1246721513733634
  0.1250000000000000  0.6250000000000000  0.6246721513733633
  0.6250000000000000  0.1250000000000000  0.1246721513733634
  0.6250000000000000  0.1250000000000000  0.6246721513733633
  0.6250000000000000  0.6250000000000000  0.1246721513733634
  0.6250000000000000  0.6250000000000000  0.6246721513733633
 
  0.00000000E+00  0.00000000E+00  0.00000000E+00
  0.00000000E+00  0.00000000E+00  0.00000000E+00
  0.00000000E+00  0.00000000E+00  0.00000000E+00
  0.00000000E+00  0.00000000E+00  0.00000000E+00
  0.00000000E+00  0.00000000E+00  0.00000000E+00
  0.00000000E+00  0.00000000E+00  0.00000000E+00
  0.00000000E+00  0.00000000E+00  0.00000000E+00
  0.00000000E+00  0.00000000E+00  0.00000000E+00
  0.00000000E+00  0.00000000E+00  0.00000000E+00
  0.00000000E+00  0.00000000E+00  0.00000000E+00
  0.00000000E+00  0.00000000E+00  0.00000000E+00
  0.00000000E+00  0.00000000E+00  0.00000000E+00
  0.00000000E+00  0.00000000E+00  0.00000000E+00
  0.00000000E+00  0.00000000E+00  0.00000000E+00
  0.00000000E+00  0.00000000E+00  0.00000000E+00
  0.00000000E+00  0.00000000E+00  0.00000000E+00
  0.00000000E+00  0.00000000E+00  0.00000000E+00
  0.00000000E+00  0.00000000E+00  0.00000000E+00
  0.00000000E+00  0.00000000E+00  0.00000000E+00
  0.00000000E+00  0.00000000E+00  0.00000000E+00
  0.00000000E+00  0.00000000E+00  0.00000000E+00
  0.00000000E+00  0.00000000E+00  0.00000000E+00
  0.00000000E+00  0.00000000E+00  0.00000000E+00
  0.00000000E+00  0.00000000E+00  0.00000000E+00
  0.00000000E+00  0.00000000E+00  0.00000000E+00
  0.00000000E+00  0.00000000E+00  0.00000000E+00
  0.00000000E+00  0.00000000E+00  0.00000000E+00
  0.00000000E+00  0.00000000E+00  0.00000000E+00
  0.00000000E+00  0.00000000E+00  0.00000000E+00
  0.00000000E+00  0.00000000E+00  0.00000000E+00
  0.00000000E+00  0.00000000E+00  0.00000000E+00
  0.00000000E+00  0.00000000E+00  0.00000000E+00
  0.00000000E+00  0.00000000E+00  0.00000000E+00
  0.00000000E+00  0.00000000E+00  0.00000000E+00
  0.00000000E+00  0.00000000E+00  0.00000000E+00
  0.00000000E+00  0.00000000E+00  0.00000000E+00
  0.00000000E+00  0.00000000E+00  0.00000000E+00
  0.00000000E+00  0.00000000E+00  0.00000000E+00
  0.00000000E+00  0.00000000E+00  0.00000000E+00
  0.00000000E+00  0.00000000E+00  0.00000000E+00
  0.00000000E+00  0.00000000E+00  0.00000000E+00
  0.00000000E+00  0.00000000E+00  0.00000000E+00
  0.00000000E+00  0.00000000E+00  0.00000000E+00
  0.00000000E+00  0.00000000E+00  0.00000000E+00
  0.00000000E+00  0.00000000E+00  0.00000000E+00
  0.00000000E+00  0.00000000E+00  0.00000000E+00
  0.00000000E+00  0.00000000E+00  0.00000000E+00
  0.00000000E+00  0.00000000E+00  0.00000000E+00
  0.00000000E+00  0.00000000E+00  0.00000000E+00
  0.00000000E+00  0.00000000E+00  0.00000000E+00
  0.00000000E+00  0.00000000E+00  0.00000000E+00
  0.00000000E+00  0.00000000E+00  0.00000000E+00
  0.00000000E+00  0.00000000E+00  0.00000000E+00
  0.00000000E+00  0.00000000E+00  0.00000000E+00
  0.00000000E+00  0.00000000E+00  0.00000000E+00
  0.00000000E+00  0.00000000E+00  0.00000000E+00
  0.00000000E+00  0.00000000E+00  0.00000000E+00
  0.00000000E+00  0.00000000E+00  0.00000000E+00
  0.00000000E+00  0.00000000E+00  0.00000000E+00
  0.00000000E+00  0.00000000E+00  0.00000000E+00
  0.00000000E+00  0.00000000E+00  0.00000000E+00
  0.00000000E+00  0.00000000E+00  0.00000000E+00
  0.00000000E+00  0.00000000E+00  0.00000000E+00
  0.00000000E+00  0.00000000E+00  0.00000000E+00
