Si8                                     
   1.00000014768065     
    10.7849000000000004    0.0268280000000000    0.0000000000000000
     0.0268280000000000   10.7312440000000002    0.0000000000000000
     0.0000000000000000    0.0000000000000000   10.7312440000000002
   Si
    64
Direct
  0.0000000000000000  0.0000000000000000  0.0001847374907369
  0.0000000000000000  0.0000000000000000  0.5001847374907369
  0.0000000000000000  0.5000000000000000  0.0001847374907369
  0.0000000000000000  0.5000000000000000  0.5001847374907369
  0.5000000000000000  0.0000000000000000  0.0001847374907369
  0.5000000000000000  0.0000000000000000  0.5001847374907369
  0.5000000000000000  0.5000000000000000  0.0001847374907369
  0.5000000000000000  0.5000000000000000  0.5001847374907369
  0.3750000000000000  0.3750000000000000  0.1248152625092631
  0.3750000000000000  0.3750000000000000  0.6248152625092631
  0.3750000000000000  0.8750000000000000  0.1248152625092631
  0.3750000000000000  0.8750000000000000  0.6248152625092631
  0.8750000000000000  0.3750000000000000  0.1248152625092631
  0.8750000000000000  0.3750000000000000  0.6248152625092631
  0.8750000000000000  0.8750000000000000  0.1248152625092631
  0.8750000000000000  0.8750000000000000  0.6248152625092631
  0.0000000000000000  0.2500000000000000  0.2501847374907369
  0.0000000000000000  0.2500000000000000  0.7501847374907369
  0.0000000000000000  0.7500000000000000  0.2501847374907369
  0.0000000000000000  0.7500000000000000  0.7501847374907369
  0.5000000000000000  0.2500000000000000  0.2501847374907369
  0.5000000000000000  0.2500000000000000  0.7501847374907369
  0.5000000000000000  0.7500000000000000  0.2501847374907369
  0.5000000000000000  0.7500000000000000  0.7501847374907369
  0.3750000000000000  0.1250000000000000  0.3748152625092631
  0.3750000000000000  0.1250000000000000  0.8748152625092631
  0.3750000000000000  0.6250000000000000  0.3748152625092631
  0.3750000000000000  0.6250000000000000  0.8748152625092631
  0.8750000000000000  0.1250000000000000  0.3748152625092631
  0.8750000000000000  0.1250000000000000  0.8748152625092631
  0.8750000000000000  0.6250000000000000  0.3748152625092631
  0.8750000000000000  0.6250000000000000  0.8748152625092631
  0.2500000000000000  0.0000000000000000  0.2501847374907369
  0.2500000000000000  0.0000000000000000  0.7501847374907369
  0.2500000000000000  0.5000000000000000  0.2501847374907369
  0.2500000000000000  0.5000000000000000  0.7501847374907369
  0.7500000000000000  0.0000000000000000  0.2501847374907369
  0.7500000000000000  0.0000000000000000  0.7501847374907369
  0.7500000000000000  0.5000000000000000  0.2501847374907369
  0.7500000000000000  0.5000000000000000  0.7501847374907369
  0.1250000000000000  0.3750000000000000  0.3748152625092631
  0.1250000000000000  0.3750000000000000  0.8748152625092631
  0.1250000000000000  0.8750000000000000  0.3748152625092631
  0.1250000000000000  0.8750000000000000  0.8748152625092631
  0.6250000000000000  0.3750000000000000  0.3748152625092631
  0.6250000000000000  0.3750000000000000  0.8748152625092631
  0.6250000000000000  0.8750000000000000  0.3748152625092631
  0.6250000000000000  0.8750000000000000  0.8748152625092631
  0.2500000000000000  0.2500000000000000  0.0001847374907369
  0.2500000000000000  0.2500000000000000  0.5001847374907369
  0.2500000000000000  0.7500000000000000  0.0001847374907369
  0.2500000000000000  0.7500000000000000  0.5001847374907369
  0.7500000000000000  0.2500000000000000  0.0001847374907369
  0.7500000000000000  0.2500000000000000  0.5001847374907369
  0.7500000000000000  0.7500000000000000  0.0001847374907369
  0.7500000000000000  0.7500000000000000  0.5001847374907369
  0.1250000000000000  0.1250000000000000  0.1248152625092631
  0.1250000000000000  0.1250000000000000  0.6248152625092631
  0.1250000000000000  0.6250000000000000  0.1248152625092631
  0.1250000000000000  0.6250000000000000  0.6248152625092631
  0.6250000000000000  0.1250000000000000  0.1248152625092631
  0.6250000000000000  0.1250000000000000  0.6248152625092631
  0.6250000000000000  0.6250000000000000  0.1248152625092631
  0.6250000000000000  0.6250000000000000  0.6248152625092631
 
  0.00000000E+00  0.00000000E+00  0.00000000E+00
  0.00000000E+00  0.00000000E+00  0.00000000E+00
  0.00000000E+00  0.00000000E+00  0.00000000E+00
  0.00000000E+00  0.00000000E+00  0.00000000E+00
  0.00000000E+00  0.00000000E+00  0.00000000E+00
  0.00000000E+00  0.00000000E+00  0.00000000E+00
  0.00000000E+00  0.00000000E+00  0.00000000E+00
  0.00000000E+00  0.00000000E+00  0.00000000E+00
  0.00000000E+00  0.00000000E+00  0.00000000E+00
  0.00000000E+00  0.00000000E+00  0.00000000E+00
  0.00000000E+00  0.00000000E+00  0.00000000E+00
  0.00000000E+00  0.00000000E+00  0.00000000E+00
  0.00000000E+00  0.00000000E+00  0.00000000E+00
  0.00000000E+00  0.00000000E+00  0.00000000E+00
  0.00000000E+00  0.00000000E+00  0.00000000E+00
  0.00000000E+00  0.00000000E+00  0.00000000E+00
  0.00000000E+00  0.00000000E+00  0.00000000E+00
  0.00000000E+00  0.00000000E+00  0.00000000E+00
  0.00000000E+00  0.00000000E+00  0.00000000E+00
  0.00000000E+00  0.00000000E+00  0.00000000E+00
  0.00000000E+00  0.00000000E+00  0.00000000E+00
  0.00000000E+00  0.00000000E+00  0.00000000E+00
  0.00000000E+00  0.00000000E+00  0.00000000E+00
  0.00000000E+00  0.00000000E+00  0.00000000E+00
  0.00000000E+00  0.00000000E+00  0.00000000E+00
  0.00000000E+00  0.00000000E+00  0.00000000E+00
  0.00000000E+00  0.00000000E+00  0.00000000E+00
  0.00000000E+00  0.00000000E+00  0.00000000E+00
  0.00000000E+00  0.00000000E+00  0.00000000E+00
  0.00000000E+00  0.00000000E+00  0.00000000E+00
  0.00000000E+00  0.00000000E+00  0.00000000E+00
  0.00000000E+00  0.00000000E+00  0.00000000E+00
  0.00000000E+00  0.00000000E+00  0.00000000E+00
  0.00000000E+00  0.00000000E+00  0.00000000E+00
  0.00000000E+00  0.00000000E+00  0.00000000E+00
  0.00000000E+00  0.00000000E+00  0.00000000E+00
  0.00000000E+00  0.00000000E+00  0.00000000E+00
  0.00000000E+00  0.00000000E+00  0.00000000E+00
  0.00000000E+00  0.00000000E+00  0.00000000E+00
  0.00000000E+00  0.00000000E+00  0.00000000E+00
  0.00000000E+00  0.00000000E+00  0.00000000E+00
  0.00000000E+00  0.00000000E+00  0.00000000E+00
  0.00000000E+00  0.00000000E+00  0.00000000E+00
  0.00000000E+00  0.00000000E+00  0.00000000E+00
  0.00000000E+00  0.00000000E+00  0.00000000E+00
  0.00000000E+00  0.00000000E+00  0.00000000E+00
  0.00000000E+00  0.00000000E+00  0.00000000E+00
  0.00000000E+00  0.00000000E+00  0.00000000E+00
  0.00000000E+00  0.00000000E+00  0.00000000E+00
  0.00000000E+00  0.00000000E+00  0.00000000E+00
  0.00000000E+00  0.00000000E+00  0.00000000E+00
  0.00000000E+00  0.00000000E+00  0.00000000E+00
  0.00000000E+00  0.00000000E+00  0.00000000E+00
  0.00000000E+00  0.00000000E+00  0.00000000E+00
  0.00000000E+00  0.00000000E+00  0.00000000E+00
  0.00000000E+00  0.00000000E+00  0.00000000E+00
  0.00000000E+00  0.00000000E+00  0.00000000E+00
  0.00000000E+00  0.00000000E+00  0.00000000E+00
  0.00000000E+00  0.00000000E+00  0.00000000E+00
  0.00000000E+00  0.00000000E+00  0.00000000E+00
  0.00000000E+00  0.00000000E+00  0.00000000E+00
  0.00000000E+00  0.00000000E+00  0.00000000E+00
  0.00000000E+00  0.00000000E+00  0.00000000E+00
  0.00000000E+00  0.00000000E+00  0.00000000E+00
