Si8                                     
   1.00000014768065     
    10.8922120000000007    0.0804840000000000    0.0000000000000000
     0.0804840000000000   10.7312440000000002    0.0000000000000000
     0.0000000000000000    0.0000000000000000   10.7312440000000002
   Si
    64
Direct
  0.0000000000000000  0.0000000000000000  0.0005463893742851
  0.0000000000000000  0.0000000000000000  0.5005463893742852
  0.0000000000000000  0.5000000000000000  0.0005463893742851
  0.0000000000000000  0.5000000000000000  0.5005463893742852
  0.5000000000000000  0.0000000000000000  0.0005463893742851
  0.5000000000000000  0.0000000000000000  0.5005463893742852
  0.5000000000000000  0.5000000000000000  0.0005463893742851
  0.5000000000000000  0.5000000000000000  0.5005463893742852
  0.3750000000000000  0.3750000000000000  0.1244536106257149
  0.3750000000000000  0.3750000000000000  0.6244536106257148
  0.3750000000000000  0.8750000000000000  0.1244536106257149
  0.3750000000000000  0.8750000000000000  0.6244536106257148
  0.8750000000000000  0.3750000000000000  0.1244536106257149
  0.8750000000000000  0.3750000000000000  0.6244536106257148
  0.8750000000000000  0.8750000000000000  0.1244536106257149
  0.8750000000000000  0.8750000000000000  0.6244536106257148
  0.0000000000000000  0.2500000000000000  0.2505463893742851
  0.0000000000000000  0.2500000000000000  0.7505463893742852
  0.0000000000000000  0.7500000000000000  0.2505463893742851
  0.0000000000000000  0.7500000000000000  0.7505463893742852
  0.5000000000000000  0.2500000000000000  0.2505463893742851
  0.5000000000000000  0.2500000000000000  0.7505463893742852
  0.5000000000000000  0.7500000000000000  0.2505463893742851
  0.5000000000000000  0.7500000000000000  0.7505463893742852
  0.3750000000000000  0.1250000000000000  0.3744536106257149
  0.3750000000000000  0.1250000000000000  0.8744536106257148
  0.3750000000000000  0.6250000000000000  0.3744536106257149
  0.3750000000000000  0.6250000000000000  0.8744536106257148
  0.8750000000000000  0.1250000000000000  0.3744536106257149
  0.8750000000000000  0.1250000000000000  0.8744536106257148
  0.8750000000000000  0.6250000000000000  0.3744536106257149
  0.8750000000000000  0.6250000000000000  0.8744536106257148
  0.2500000000000000  0.0000000000000000  0.2505463893742851
  0.2500000000000000  0.0000000000000000  0.7505463893742852
  0.2500000000000000  0.5000000000000000  0.2505463893742851
  0.2500000000000000  0.5000000000000000  0.7505463893742852
  0.7500000000000000  0.0000000000000000  0.2505463893742851
  0.7500000000000000  0.0000000000000000  0.7505463893742852
  0.7500000000000000  0.5000000000000000  0.2505463893742851
  0.7500000000000000  0.5000000000000000  0.7505463893742852
  0.1250000000000000  0.3750000000000000  0.3744536106257149
  0.1250000000000000  0.3750000000000000  0.8744536106257148
  0.1250000000000000  0.8750000000000000  0.3744536106257149
  0.1250000000000000  0.8750000000000000  0.8744536106257148
  0.6250000000000000  0.3750000000000000  0.3744536106257149
  0.6250000000000000  0.3750000000000000  0.8744536106257148
  0.6250000000000000  0.8750000000000000  0.3744536106257149
  0.6250000000000000  0.8750000000000000  0.8744536106257148
  0.2500000000000000  0.2500000000000000  0.0005463893742851
  0.2500000000000000  0.2500000000000000  0.5005463893742852
  0.2500000000000000  0.7500000000000000  0.0005463893742851
  0.2500000000000000  0.7500000000000000  0.5005463893742852
  0.7500000000000000  0.2500000000000000  0.0005463893742851
  0.7500000000000000  0.2500000000000000  0.5005463893742852
  0.7500000000000000  0.7500000000000000  0.0005463893742851
  0.7500000000000000  0.7500000000000000  0.5005463893742852
  0.1250000000000000  0.1250000000000000  0.1244536106257149
  0.1250000000000000  0.1250000000000000  0.6244536106257148
  0.1250000000000000  0.6250000000000000  0.1244536106257149
  0.1250000000000000  0.6250000000000000  0.6244536106257148
  0.6250000000000000  0.1250000000000000  0.1244536106257149
  0.6250000000000000  0.1250000000000000  0.6244536106257148
  0.6250000000000000  0.6250000000000000  0.1244536106257149
  0.6250000000000000  0.6250000000000000  0.6244536106257148
 
  0.00000000E+00  0.00000000E+00  0.00000000E+00
  0.00000000E+00  0.00000000E+00  0.00000000E+00
  0.00000000E+00  0.00000000E+00  0.00000000E+00
  0.00000000E+00  0.00000000E+00  0.00000000E+00
  0.00000000E+00  0.00000000E+00  0.00000000E+00
  0.00000000E+00  0.00000000E+00  0.00000000E+00
  0.00000000E+00  0.00000000E+00  0.00000000E+00
  0.00000000E+00  0.00000000E+00  0.00000000E+00
  0.00000000E+00  0.00000000E+00  0.00000000E+00
  0.00000000E+00  0.00000000E+00  0.00000000E+00
  0.00000000E+00  0.00000000E+00  0.00000000E+00
  0.00000000E+00  0.00000000E+00  0.00000000E+00
  0.00000000E+00  0.00000000E+00  0.00000000E+00
  0.00000000E+00  0.00000000E+00  0.00000000E+00
  0.00000000E+00  0.00000000E+00  0.00000000E+00
  0.00000000E+00  0.00000000E+00  0.00000000E+00
  0.00000000E+00  0.00000000E+00  0.00000000E+00
  0.00000000E+00  0.00000000E+00  0.00000000E+00
  0.00000000E+00  0.00000000E+00  0.00000000E+00
  0.00000000E+00  0.00000000E+00  0.00000000E+00
  0.00000000E+00  0.00000000E+00  0.00000000E+00
  0.00000000E+00  0.00000000E+00  0.00000000E+00
  0.00000000E+00  0.00000000E+00  0.00000000E+00
  0.00000000E+00  0.00000000E+00  0.00000000E+00
  0.00000000E+00  0.00000000E+00  0.00000000E+00
  0.00000000E+00  0.00000000E+00  0.00000000E+00
  0.00000000E+00  0.00000000E+00  0.00000000E+00
  0.00000000E+00  0.00000000E+00  0.00000000E+00
  0.00000000E+00  0.00000000E+00  0.00000000E+00
  0.00000000E+00  0.00000000E+00  0.00000000E+00
  0.00000000E+00  0.00000000E+00  0.00000000E+00
  0.00000000E+00  0.00000000E+00  0.00000000E+00
  0.00000000E+00  0.00000000E+00  0.00000000E+00
  0.00000000E+00  0.00000000E+00  0.00000000E+00
  0.00000000E+00  0.00000000E+00  0.00000000E+00
  0.00000000E+00  0.00000000E+00  0.00000000E+00
  0.00000000E+00  0.00000000E+00  0.00000000E+00
  0.00000000E+00  0.00000000E+00  0.00000000E+00
  0.00000000E+00  0.00000000E+00  0.00000000E+00
  0.00000000E+00  0.00000000E+00  0.00000000E+00
  0.00000000E+00  0.00000000E+00  0.00000000E+00
  0.00000000E+00  0.00000000E+00  0.00000000E+00
  0.00000000E+00  0.00000000E+00  0.00000000E+00
  0.00000000E+00  0.00000000E+00  0.00000000E+00
  0.00000000E+00  0.00000000E+00  0.00000000E+00
  0.00000000E+00  0.00000000E+00  0.00000000E+00
  0.00000000E+00  0.00000000E+00  0.00000000E+00
  0.00000000E+00  0.00000000E+00  0.00000000E+00
  0.00000000E+00  0.00000000E+00  0.00000000E+00
  0.00000000E+00  0.00000000E+00  0.00000000E+00
  0.00000000E+00  0.00000000E+00  0.00000000E+00
  0.00000000E+00  0.00000000E+00  0.00000000E+00
  0.00000000E+00  0.00000000E+00  0.00000000E+00
  0.00000000E+00  0.00000000E+00  0.00000000E+00
  0.00000000E+00  0.00000000E+00  0.00000000E+00
  0.00000000E+00  0.00000000E+00  0.00000000E+00
  0.00000000E+00  0.00000000E+00  0.00000000E+00
  0.00000000E+00  0.00000000E+00  0.00000000E+00
  0.00000000E+00  0.00000000E+00  0.00000000E+00
  0.00000000E+00  0.00000000E+00  0.00000000E+00
  0.00000000E+00  0.00000000E+00  0.00000000E+00
  0.00000000E+00  0.00000000E+00  0.00000000E+00
  0.00000000E+00  0.00000000E+00  0.00000000E+00
  0.00000000E+00  0.00000000E+00  0.00000000E+00
