Si8                                     
   1.00000014768065     
    10.5041309999999992   -0.0263920000000000    0.0000000000000000
    -0.0263920000000000   10.5569159999999993    0.0000000000000000
     0.0000000000000000    0.0000000000000000   10.5569159999999993
   Si
    64
Direct
  0.0000000000000000  0.0000000000000000  0.9997810300437802
  0.0000000000000000  0.0000000000000000  0.4997810300437802
  0.0000000000000000  0.5000000000000000  0.9997810300437802
  0.0000000000000000  0.5000000000000000  0.4997810300437802
  0.5000000000000000  0.0000000000000000  0.9997810300437802
  0.5000000000000000  0.0000000000000000  0.4997810300437802
  0.5000000000000000  0.5000000000000000  0.9997810300437802
  0.5000000000000000  0.5000000000000000  0.4997810300437802
  0.3750000000000000  0.3750000000000000  0.1252189699562199
  0.3750000000000000  0.3750000000000000  0.6252189699562198
  0.3750000000000000  0.8750000000000000  0.1252189699562199
  0.3750000000000000  0.8750000000000000  0.6252189699562198
  0.8750000000000000  0.3750000000000000  0.1252189699562199
  0.8750000000000000  0.3750000000000000  0.6252189699562198
  0.8750000000000000  0.8750000000000000  0.1252189699562199
  0.8750000000000000  0.8750000000000000  0.6252189699562198
  0.0000000000000000  0.2500000000000000  0.2497810300437801
  0.0000000000000000  0.2500000000000000  0.7497810300437802
  0.0000000000000000  0.7500000000000000  0.2497810300437801
  0.0000000000000000  0.7500000000000000  0.7497810300437802
  0.5000000000000000  0.2500000000000000  0.2497810300437801
  0.5000000000000000  0.2500000000000000  0.7497810300437802
  0.5000000000000000  0.7500000000000000  0.2497810300437801
  0.5000000000000000  0.7500000000000000  0.7497810300437802
  0.3750000000000000  0.1250000000000000  0.3752189699562198
  0.3750000000000000  0.1250000000000000  0.8752189699562198
  0.3750000000000000  0.6250000000000000  0.3752189699562198
  0.3750000000000000  0.6250000000000000  0.8752189699562198
  0.8750000000000000  0.1250000000000000  0.3752189699562198
  0.8750000000000000  0.1250000000000000  0.8752189699562198
  0.8750000000000000  0.6250000000000000  0.3752189699562198
  0.8750000000000000  0.6250000000000000  0.8752189699562198
  0.2500000000000000  0.0000000000000000  0.2497810300437801
  0.2500000000000000  0.0000000000000000  0.7497810300437802
  0.2500000000000000  0.5000000000000000  0.2497810300437801
  0.2500000000000000  0.5000000000000000  0.7497810300437802
  0.7500000000000000  0.0000000000000000  0.2497810300437801
  0.7500000000000000  0.0000000000000000  0.7497810300437802
  0.7500000000000000  0.5000000000000000  0.2497810300437801
  0.7500000000000000  0.5000000000000000  0.7497810300437802
  0.1250000000000000  0.3750000000000000  0.3752189699562198
  0.1250000000000000  0.3750000000000000  0.8752189699562198
  0.1250000000000000  0.8750000000000000  0.3752189699562198
  0.1250000000000000  0.8750000000000000  0.8752189699562198
  0.6250000000000000  0.3750000000000000  0.3752189699562198
  0.6250000000000000  0.3750000000000000  0.8752189699562198
  0.6250000000000000  0.8750000000000000  0.3752189699562198
  0.6250000000000000  0.8750000000000000  0.8752189699562198
  0.2500000000000000  0.2500000000000000  0.9997810300437802
  0.2500000000000000  0.2500000000000000  0.4997810300437802
  0.2500000000000000  0.7500000000000000  0.9997810300437802
  0.2500000000000000  0.7500000000000000  0.4997810300437802
  0.7500000000000000  0.2500000000000000  0.9997810300437802
  0.7500000000000000  0.2500000000000000  0.4997810300437802
  0.7500000000000000  0.7500000000000000  0.9997810300437802
  0.7500000000000000  0.7500000000000000  0.4997810300437802
  0.1250000000000000  0.1250000000000000  0.1252189699562199
  0.1250000000000000  0.1250000000000000  0.6252189699562198
  0.1250000000000000  0.6250000000000000  0.1252189699562199
  0.1250000000000000  0.6250000000000000  0.6252189699562198
  0.6250000000000000  0.1250000000000000  0.1252189699562199
  0.6250000000000000  0.1250000000000000  0.6252189699562198
  0.6250000000000000  0.6250000000000000  0.1252189699562199
  0.6250000000000000  0.6250000000000000  0.6252189699562198
 
  0.00000000E+00  0.00000000E+00  0.00000000E+00
  0.00000000E+00  0.00000000E+00  0.00000000E+00
  0.00000000E+00  0.00000000E+00  0.00000000E+00
  0.00000000E+00  0.00000000E+00  0.00000000E+00
  0.00000000E+00  0.00000000E+00  0.00000000E+00
  0.00000000E+00  0.00000000E+00  0.00000000E+00
  0.00000000E+00  0.00000000E+00  0.00000000E+00
  0.00000000E+00  0.00000000E+00  0.00000000E+00
  0.00000000E+00  0.00000000E+00  0.00000000E+00
  0.00000000E+00  0.00000000E+00  0.00000000E+00
  0.00000000E+00  0.00000000E+00  0.00000000E+00
  0.00000000E+00  0.00000000E+00  0.00000000E+00
  0.00000000E+00  0.00000000E+00  0.00000000E+00
  0.00000000E+00  0.00000000E+00  0.00000000E+00
  0.00000000E+00  0.00000000E+00  0.00000000E+00
  0.00000000E+00  0.00000000E+00  0.00000000E+00
  0.00000000E+00  0.00000000E+00  0.00000000E+00
  0.00000000E+00  0.00000000E+00  0.00000000E+00
  0.00000000E+00  0.00000000E+00  0.00000000E+00
  0.00000000E+00  0.00000000E+00  0.00000000E+00
  0.00000000E+00  0.00000000E+00  0.00000000E+00
  0.00000000E+00  0.00000000E+00  0.00000000E+00
  0.00000000E+00  0.00000000E+00  0.00000000E+00
  0.00000000E+00  0.00000000E+00  0.00000000E+00
  0.00000000E+00  0.00000000E+00  0.00000000E+00
  0.00000000E+00  0.00000000E+00  0.00000000E+00
  0.00000000E+00  0.00000000E+00  0.00000000E+00
  0.00000000E+00  0.00000000E+00  0.00000000E+00
  0.00000000E+00  0.00000000E+00  0.00000000E+00
  0.00000000E+00  0.00000000E+00  0.00000000E+00
  0.00000000E+00  0.00000000E+00  0.00000000E+00
  0.00000000E+00  0.00000000E+00  0.00000000E+00
  0.00000000E+00  0.00000000E+00  0.00000000E+00
  0.00000000E+00  0.00000000E+00  0.00000000E+00
  0.00000000E+00  0.00000000E+00  0.00000000E+00
  0.00000000E+00  0.00000000E+00  0.00000000E+00
  0.00000000E+00  0.00000000E+00  0.00000000E+00
  0.00000000E+00  0.00000000E+00  0.00000000E+00
  0.00000000E+00  0.00000000E+00  0.00000000E+00
  0.00000000E+00  0.00000000E+00  0.00000000E+00
  0.00000000E+00  0.00000000E+00  0.00000000E+00
  0.00000000E+00  0.00000000E+00  0.00000000E+00
  0.00000000E+00  0.00000000E+00  0.00000000E+00
  0.00000000E+00  0.00000000E+00  0.00000000E+00
  0.00000000E+00  0.00000000E+00  0.00000000E+00
  0.00000000E+00  0.00000000E+00  0.00000000E+00
  0.00000000E+00  0.00000000E+00  0.00000000E+00
  0.00000000E+00  0.00000000E+00  0.00000000E+00
  0.00000000E+00  0.00000000E+00  0.00000000E+00
  0.00000000E+00  0.00000000E+00  0.00000000E+00
  0.00000000E+00  0.00000000E+00  0.00000000E+00
  0.00000000E+00  0.00000000E+00  0.00000000E+00
  0.00000000E+00  0.00000000E+00  0.00000000E+00
  0.00000000E+00  0.00000000E+00  0.00000000E+00
  0.00000000E+00  0.00000000E+00  0.00000000E+00
  0.00000000E+00  0.00000000E+00  0.00000000E+00
  0.00000000E+00  0.00000000E+00  0.00000000E+00
  0.00000000E+00  0.00000000E+00  0.00000000E+00
  0.00000000E+00  0.00000000E+00  0.00000000E+00
  0.00000000E+00  0.00000000E+00  0.00000000E+00
  0.00000000E+00  0.00000000E+00  0.00000000E+00
  0.00000000E+00  0.00000000E+00  0.00000000E+00
  0.00000000E+00  0.00000000E+00  0.00000000E+00
  0.00000000E+00  0.00000000E+00  0.00000000E+00
