Si8                                     
   1.00000014768065     
    10.6902799999999996   -0.0539910000000000    0.0000000000000000
    -0.0539910000000000   10.7982630000000004    0.0000000000000000
     0.0000000000000000    0.0000000000000000   10.7982630000000004
   Si
    64
Direct
  0.0000000000000000  0.0000000000000000  0.9996399343800674
  0.0000000000000000  0.0000000000000000  0.4996399343800674
  0.0000000000000000  0.5000000000000000  0.9996399343800674
  0.0000000000000000  0.5000000000000000  0.4996399343800674
  0.5000000000000000  0.0000000000000000  0.9996399343800674
  0.5000000000000000  0.0000000000000000  0.4996399343800674
  0.5000000000000000  0.5000000000000000  0.9996399343800674
  0.5000000000000000  0.5000000000000000  0.4996399343800674
  0.3750000000000000  0.3750000000000000  0.1253600656199326
  0.3750000000000000  0.3750000000000000  0.6253600656199326
  0.3750000000000000  0.8750000000000000  0.1253600656199326
  0.3750000000000000  0.8750000000000000  0.6253600656199326
  0.8750000000000000  0.3750000000000000  0.1253600656199326
  0.8750000000000000  0.3750000000000000  0.6253600656199326
  0.8750000000000000  0.8750000000000000  0.1253600656199326
  0.8750000000000000  0.8750000000000000  0.6253600656199326
  0.0000000000000000  0.2500000000000000  0.2496399343800674
  0.0000000000000000  0.2500000000000000  0.7496399343800674
  0.0000000000000000  0.7500000000000000  0.2496399343800674
  0.0000000000000000  0.7500000000000000  0.7496399343800674
  0.5000000000000000  0.2500000000000000  0.2496399343800674
  0.5000000000000000  0.2500000000000000  0.7496399343800674
  0.5000000000000000  0.7500000000000000  0.2496399343800674
  0.5000000000000000  0.7500000000000000  0.7496399343800674
  0.3750000000000000  0.1250000000000000  0.3753600656199326
  0.3750000000000000  0.1250000000000000  0.8753600656199326
  0.3750000000000000  0.6250000000000000  0.3753600656199326
  0.3750000000000000  0.6250000000000000  0.8753600656199326
  0.8750000000000000  0.1250000000000000  0.3753600656199326
  0.8750000000000000  0.1250000000000000  0.8753600656199326
  0.8750000000000000  0.6250000000000000  0.3753600656199326
  0.8750000000000000  0.6250000000000000  0.8753600656199326
  0.2500000000000000  0.0000000000000000  0.2496399343800674
  0.2500000000000000  0.0000000000000000  0.7496399343800674
  0.2500000000000000  0.5000000000000000  0.2496399343800674
  0.2500000000000000  0.5000000000000000  0.7496399343800674
  0.7500000000000000  0.0000000000000000  0.2496399343800674
  0.7500000000000000  0.0000000000000000  0.7496399343800674
  0.7500000000000000  0.5000000000000000  0.2496399343800674
  0.7500000000000000  0.5000000000000000  0.7496399343800674
  0.1250000000000000  0.3750000000000000  0.3753600656199326
  0.1250000000000000  0.3750000000000000  0.8753600656199326
  0.1250000000000000  0.8750000000000000  0.3753600656199326
  0.1250000000000000  0.8750000000000000  0.8753600656199326
  0.6250000000000000  0.3750000000000000  0.3753600656199326
  0.6250000000000000  0.3750000000000000  0.8753600656199326
  0.6250000000000000  0.8750000000000000  0.3753600656199326
  0.6250000000000000  0.8750000000000000  0.8753600656199326
  0.2500000000000000  0.2500000000000000  0.9996399343800674
  0.2500000000000000  0.2500000000000000  0.4996399343800674
  0.2500000000000000  0.7500000000000000  0.9996399343800674
  0.2500000000000000  0.7500000000000000  0.4996399343800674
  0.7500000000000000  0.2500000000000000  0.9996399343800674
  0.7500000000000000  0.2500000000000000  0.4996399343800674
  0.7500000000000000  0.7500000000000000  0.9996399343800674
  0.7500000000000000  0.7500000000000000  0.4996399343800674
  0.1250000000000000  0.1250000000000000  0.1253600656199326
  0.1250000000000000  0.1250000000000000  0.6253600656199326
  0.1250000000000000  0.6250000000000000  0.1253600656199326
  0.1250000000000000  0.6250000000000000  0.6253600656199326
  0.6250000000000000  0.1250000000000000  0.1253600656199326
  0.6250000000000000  0.1250000000000000  0.6253600656199326
  0.6250000000000000  0.6250000000000000  0.1253600656199326
  0.6250000000000000  0.6250000000000000  0.6253600656199326
 
  0.00000000E+00  0.00000000E+00  0.00000000E+00
  0.00000000E+00  0.00000000E+00  0.00000000E+00
  0.00000000E+00  0.00000000E+00  0.00000000E+00
  0.00000000E+00  0.00000000E+00  0.00000000E+00
  0.00000000E+00  0.00000000E+00  0.00000000E+00
  0.00000000E+00  0.00000000E+00  0.00000000E+00
  0.00000000E+00  0.00000000E+00  0.00000000E+00
  0.00000000E+00  0.00000000E+00  0.00000000E+00
  0.00000000E+00  0.00000000E+00  0.00000000E+00
  0.00000000E+00  0.00000000E+00  0.00000000E+00
  0.00000000E+00  0.00000000E+00  0.00000000E+00
  0.00000000E+00  0.00000000E+00  0.00000000E+00
  0.00000000E+00  0.00000000E+00  0.00000000E+00
  0.00000000E+00  0.00000000E+00  0.00000000E+00
  0.00000000E+00  0.00000000E+00  0.00000000E+00
  0.00000000E+00  0.00000000E+00  0.00000000E+00
  0.00000000E+00  0.00000000E+00  0.00000000E+00
  0.00000000E+00  0.00000000E+00  0.00000000E+00
  0.00000000E+00  0.00000000E+00  0.00000000E+00
  0.00000000E+00  0.00000000E+00  0.00000000E+00
  0.00000000E+00  0.00000000E+00  0.00000000E+00
  0.00000000E+00  0.00000000E+00  0.00000000E+00
  0.00000000E+00  0.00000000E+00  0.00000000E+00
  0.00000000E+00  0.00000000E+00  0.00000000E+00
  0.00000000E+00  0.00000000E+00  0.00000000E+00
  0.00000000E+00  0.00000000E+00  0.00000000E+00
  0.00000000E+00  0.00000000E+00  0.00000000E+00
  0.00000000E+00  0.00000000E+00  0.00000000E+00
  0.00000000E+00  0.00000000E+00  0.00000000E+00
  0.00000000E+00  0.00000000E+00  0.00000000E+00
  0.00000000E+00  0.00000000E+00  0.00000000E+00
  0.00000000E+00  0.00000000E+00  0.00000000E+00
  0.00000000E+00  0.00000000E+00  0.00000000E+00
  0.00000000E+00  0.00000000E+00  0.00000000E+00
  0.00000000E+00  0.00000000E+00  0.00000000E+00
  0.00000000E+00  0.00000000E+00  0.00000000E+00
  0.00000000E+00  0.00000000E+00  0.00000000E+00
  0.00000000E+00  0.00000000E+00  0.00000000E+00
  0.00000000E+00  0.00000000E+00  0.00000000E+00
  0.00000000E+00  0.00000000E+00  0.00000000E+00
  0.00000000E+00  0.00000000E+00  0.00000000E+00
  0.00000000E+00  0.00000000E+00  0.00000000E+00
  0.00000000E+00  0.00000000E+00  0.00000000E+00
  0.00000000E+00  0.00000000E+00  0.00000000E+00
  0.00000000E+00  0.00000000E+00  0.00000000E+00
  0.00000000E+00  0.00000000E+00  0.00000000E+00
  0.00000000E+00  0.00000000E+00  0.00000000E+00
  0.00000000E+00  0.00000000E+00  0.00000000E+00
  0.00000000E+00  0.00000000E+00  0.00000000E+00
  0.00000000E+00  0.00000000E+00  0.00000000E+00
  0.00000000E+00  0.00000000E+00  0.00000000E+00
  0.00000000E+00  0.00000000E+00  0.00000000E+00
  0.00000000E+00  0.00000000E+00  0.00000000E+00
  0.00000000E+00  0.00000000E+00  0.00000000E+00
  0.00000000E+00  0.00000000E+00  0.00000000E+00
  0.00000000E+00  0.00000000E+00  0.00000000E+00
  0.00000000E+00  0.00000000E+00  0.00000000E+00
  0.00000000E+00  0.00000000E+00  0.00000000E+00
  0.00000000E+00  0.00000000E+00  0.00000000E+00
  0.00000000E+00  0.00000000E+00  0.00000000E+00
  0.00000000E+00  0.00000000E+00  0.00000000E+00
  0.00000000E+00  0.00000000E+00  0.00000000E+00
  0.00000000E+00  0.00000000E+00  0.00000000E+00
  0.00000000E+00  0.00000000E+00  0.00000000E+00
