Si8                                     
   1.00000014768065     
    10.4571439999999996   -0.1067060000000000    0.0000000000000000
    -0.1067060000000000   10.6705550000000002    0.0000000000000000
     0.0000000000000000    0.0000000000000000   10.6705550000000002
   Si
    64
Direct
  0.0000000000000000  0.0000000000000000  0.9991420892269196
  0.0000000000000000  0.0000000000000000  0.4991420892269195
  0.0000000000000000  0.5000000000000000  0.9991420892269196
  0.0000000000000000  0.5000000000000000  0.4991420892269195
  0.5000000000000000  0.0000000000000000  0.9991420892269196
  0.5000000000000000  0.0000000000000000  0.4991420892269195
  0.5000000000000000  0.5000000000000000  0.9991420892269196
  0.5000000000000000  0.5000000000000000  0.4991420892269195
  0.3750000000000000  0.3750000000000000  0.1258579107730805
  0.3750000000000000  0.3750000000000000  0.6258579107730804
  0.3750000000000000  0.8750000000000000  0.1258579107730805
  0.3750000000000000  0.8750000000000000  0.6258579107730804
  0.8750000000000000  0.3750000000000000  0.1258579107730805
  0.8750000000000000  0.3750000000000000  0.6258579107730804
  0.8750000000000000  0.8750000000000000  0.1258579107730805
  0.8750000000000000  0.8750000000000000  0.6258579107730804
  0.0000000000000000  0.2500000000000000  0.2491420892269195
  0.0000000000000000  0.2500000000000000  0.7491420892269196
  0.0000000000000000  0.7500000000000000  0.2491420892269195
  0.0000000000000000  0.7500000000000000  0.7491420892269196
  0.5000000000000000  0.2500000000000000  0.2491420892269195
  0.5000000000000000  0.2500000000000000  0.7491420892269196
  0.5000000000000000  0.7500000000000000  0.2491420892269195
  0.5000000000000000  0.7500000000000000  0.7491420892269196
  0.3750000000000000  0.1250000000000000  0.3758579107730805
  0.3750000000000000  0.1250000000000000  0.8758579107730804
  0.3750000000000000  0.6250000000000000  0.3758579107730805
  0.3750000000000000  0.6250000000000000  0.8758579107730804
  0.8750000000000000  0.1250000000000000  0.3758579107730805
  0.8750000000000000  0.1250000000000000  0.8758579107730804
  0.8750000000000000  0.6250000000000000  0.3758579107730805
  0.8750000000000000  0.6250000000000000  0.8758579107730804
  0.2500000000000000  0.0000000000000000  0.2491420892269195
  0.2500000000000000  0.0000000000000000  0.7491420892269196
  0.2500000000000000  0.5000000000000000  0.2491420892269195
  0.2500000000000000  0.5000000000000000  0.7491420892269196
  0.7500000000000000  0.0000000000000000  0.2491420892269195
  0.7500000000000000  0.0000000000000000  0.7491420892269196
  0.7500000000000000  0.5000000000000000  0.2491420892269195
  0.7500000000000000  0.5000000000000000  0.7491420892269196
  0.1250000000000000  0.3750000000000000  0.3758579107730805
  0.1250000000000000  0.3750000000000000  0.8758579107730804
  0.1250000000000000  0.8750000000000000  0.3758579107730805
  0.1250000000000000  0.8750000000000000  0.8758579107730804
  0.6250000000000000  0.3750000000000000  0.3758579107730805
  0.6250000000000000  0.3750000000000000  0.8758579107730804
  0.6250000000000000  0.8750000000000000  0.3758579107730805
  0.6250000000000000  0.8750000000000000  0.8758579107730804
  0.2500000000000000  0.2500000000000000  0.9991420892269196
  0.2500000000000000  0.2500000000000000  0.4991420892269195
  0.2500000000000000  0.7500000000000000  0.9991420892269196
  0.2500000000000000  0.7500000000000000  0.4991420892269195
  0.7500000000000000  0.2500000000000000  0.9991420892269196
  0.7500000000000000  0.2500000000000000  0.4991420892269195
  0.7500000000000000  0.7500000000000000  0.9991420892269196
  0.7500000000000000  0.7500000000000000  0.4991420892269195
  0.1250000000000000  0.1250000000000000  0.1258579107730805
  0.1250000000000000  0.1250000000000000  0.6258579107730804
  0.1250000000000000  0.6250000000000000  0.1258579107730805
  0.1250000000000000  0.6250000000000000  0.6258579107730804
  0.6250000000000000  0.1250000000000000  0.1258579107730805
  0.6250000000000000  0.1250000000000000  0.6258579107730804
  0.6250000000000000  0.6250000000000000  0.1258579107730805
  0.6250000000000000  0.6250000000000000  0.6258579107730804
 
  0.00000000E+00  0.00000000E+00  0.00000000E+00
  0.00000000E+00  0.00000000E+00  0.00000000E+00
  0.00000000E+00  0.00000000E+00  0.00000000E+00
  0.00000000E+00  0.00000000E+00  0.00000000E+00
  0.00000000E+00  0.00000000E+00  0.00000000E+00
  0.00000000E+00  0.00000000E+00  0.00000000E+00
  0.00000000E+00  0.00000000E+00  0.00000000E+00
  0.00000000E+00  0.00000000E+00  0.00000000E+00
  0.00000000E+00  0.00000000E+00  0.00000000E+00
  0.00000000E+00  0.00000000E+00  0.00000000E+00
  0.00000000E+00  0.00000000E+00  0.00000000E+00
  0.00000000E+00  0.00000000E+00  0.00000000E+00
  0.00000000E+00  0.00000000E+00  0.00000000E+00
  0.00000000E+00  0.00000000E+00  0.00000000E+00
  0.00000000E+00  0.00000000E+00  0.00000000E+00
  0.00000000E+00  0.00000000E+00  0.00000000E+00
  0.00000000E+00  0.00000000E+00  0.00000000E+00
  0.00000000E+00  0.00000000E+00  0.00000000E+00
  0.00000000E+00  0.00000000E+00  0.00000000E+00
  0.00000000E+00  0.00000000E+00  0.00000000E+00
  0.00000000E+00  0.00000000E+00  0.00000000E+00
  0.00000000E+00  0.00000000E+00  0.00000000E+00
  0.00000000E+00  0.00000000E+00  0.00000000E+00
  0.00000000E+00  0.00000000E+00  0.00000000E+00
  0.00000000E+00  0.00000000E+00  0.00000000E+00
  0.00000000E+00  0.00000000E+00  0.00000000E+00
  0.00000000E+00  0.00000000E+00  0.00000000E+00
  0.00000000E+00  0.00000000E+00  0.00000000E+00
  0.00000000E+00  0.00000000E+00  0.00000000E+00
  0.00000000E+00  0.00000000E+00  0.00000000E+00
  0.00000000E+00  0.00000000E+00  0.00000000E+00
  0.00000000E+00  0.00000000E+00  0.00000000E+00
  0.00000000E+00  0.00000000E+00  0.00000000E+00
  0.00000000E+00  0.00000000E+00  0.00000000E+00
  0.00000000E+00  0.00000000E+00  0.00000000E+00
  0.00000000E+00  0.00000000E+00  0.00000000E+00
  0.00000000E+00  0.00000000E+00  0.00000000E+00
  0.00000000E+00  0.00000000E+00  0.00000000E+00
  0.00000000E+00  0.00000000E+00  0.00000000E+00
  0.00000000E+00  0.00000000E+00  0.00000000E+00
  0.00000000E+00  0.00000000E+00  0.00000000E+00
  0.00000000E+00  0.00000000E+00  0.00000000E+00
  0.00000000E+00  0.00000000E+00  0.00000000E+00
  0.00000000E+00  0.00000000E+00  0.00000000E+00
  0.00000000E+00  0.00000000E+00  0.00000000E+00
  0.00000000E+00  0.00000000E+00  0.00000000E+00
  0.00000000E+00  0.00000000E+00  0.00000000E+00
  0.00000000E+00  0.00000000E+00  0.00000000E+00
  0.00000000E+00  0.00000000E+00  0.00000000E+00
  0.00000000E+00  0.00000000E+00  0.00000000E+00
  0.00000000E+00  0.00000000E+00  0.00000000E+00
  0.00000000E+00  0.00000000E+00  0.00000000E+00
  0.00000000E+00  0.00000000E+00  0.00000000E+00
  0.00000000E+00  0.00000000E+00  0.00000000E+00
  0.00000000E+00  0.00000000E+00  0.00000000E+00
  0.00000000E+00  0.00000000E+00  0.00000000E+00
  0.00000000E+00  0.00000000E+00  0.00000000E+00
  0.00000000E+00  0.00000000E+00  0.00000000E+00
  0.00000000E+00  0.00000000E+00  0.00000000E+00
  0.00000000E+00  0.00000000E+00  0.00000000E+00
  0.00000000E+00  0.00000000E+00  0.00000000E+00
  0.00000000E+00  0.00000000E+00  0.00000000E+00
  0.00000000E+00  0.00000000E+00  0.00000000E+00
  0.00000000E+00  0.00000000E+00  0.00000000E+00
