Si8                                     
   1.00000014768065     
    10.8171090000000003   -0.0271790000000000    0.0000000000000000
    -0.0271790000000000   10.8714659999999999    0.0000000000000000
     0.0000000000000000    0.0000000000000000   10.8714659999999999
   Si
    64
Direct
  0.0000000000000000  0.0000000000000000  0.9998324941224923
  0.0000000000000000  0.0000000000000000  0.4998324941224923
  0.0000000000000000  0.5000000000000000  0.9998324941224923
  0.0000000000000000  0.5000000000000000  0.4998324941224923
  0.5000000000000000  0.0000000000000000  0.9998324941224923
  0.5000000000000000  0.0000000000000000  0.4998324941224923
  0.5000000000000000  0.5000000000000000  0.9998324941224923
  0.5000000000000000  0.5000000000000000  0.4998324941224923
  0.3750000000000000  0.3750000000000000  0.1251675058775077
  0.3750000000000000  0.3750000000000000  0.6251675058775077
  0.3750000000000000  0.8750000000000000  0.1251675058775077
  0.3750000000000000  0.8750000000000000  0.6251675058775077
  0.8750000000000000  0.3750000000000000  0.1251675058775077
  0.8750000000000000  0.3750000000000000  0.6251675058775077
  0.8750000000000000  0.8750000000000000  0.1251675058775077
  0.8750000000000000  0.8750000000000000  0.6251675058775077
  0.0000000000000000  0.2500000000000000  0.2498324941224923
  0.0000000000000000  0.2500000000000000  0.7498324941224923
  0.0000000000000000  0.7500000000000000  0.2498324941224923
  0.0000000000000000  0.7500000000000000  0.7498324941224923
  0.5000000000000000  0.2500000000000000  0.2498324941224923
  0.5000000000000000  0.2500000000000000  0.7498324941224923
  0.5000000000000000  0.7500000000000000  0.2498324941224923
  0.5000000000000000  0.7500000000000000  0.7498324941224923
  0.3750000000000000  0.1250000000000000  0.3751675058775077
  0.3750000000000000  0.1250000000000000  0.8751675058775077
  0.3750000000000000  0.6250000000000000  0.3751675058775077
  0.3750000000000000  0.6250000000000000  0.8751675058775077
  0.8750000000000000  0.1250000000000000  0.3751675058775077
  0.8750000000000000  0.1250000000000000  0.8751675058775077
  0.8750000000000000  0.6250000000000000  0.3751675058775077
  0.8750000000000000  0.6250000000000000  0.8751675058775077
  0.2500000000000000  0.0000000000000000  0.2498324941224923
  0.2500000000000000  0.0000000000000000  0.7498324941224923
  0.2500000000000000  0.5000000000000000  0.2498324941224923
  0.2500000000000000  0.5000000000000000  0.7498324941224923
  0.7500000000000000  0.0000000000000000  0.2498324941224923
  0.7500000000000000  0.0000000000000000  0.7498324941224923
  0.7500000000000000  0.5000000000000000  0.2498324941224923
  0.7500000000000000  0.5000000000000000  0.7498324941224923
  0.1250000000000000  0.3750000000000000  0.3751675058775077
  0.1250000000000000  0.3750000000000000  0.8751675058775077
  0.1250000000000000  0.8750000000000000  0.3751675058775077
  0.1250000000000000  0.8750000000000000  0.8751675058775077
  0.6250000000000000  0.3750000000000000  0.3751675058775077
  0.6250000000000000  0.3750000000000000  0.8751675058775077
  0.6250000000000000  0.8750000000000000  0.3751675058775077
  0.6250000000000000  0.8750000000000000  0.8751675058775077
  0.2500000000000000  0.2500000000000000  0.9998324941224923
  0.2500000000000000  0.2500000000000000  0.4998324941224923
  0.2500000000000000  0.7500000000000000  0.9998324941224923
  0.2500000000000000  0.7500000000000000  0.4998324941224923
  0.7500000000000000  0.2500000000000000  0.9998324941224923
  0.7500000000000000  0.2500000000000000  0.4998324941224923
  0.7500000000000000  0.7500000000000000  0.9998324941224923
  0.7500000000000000  0.7500000000000000  0.4998324941224923
  0.1250000000000000  0.1250000000000000  0.1251675058775077
  0.1250000000000000  0.1250000000000000  0.6251675058775077
  0.1250000000000000  0.6250000000000000  0.1251675058775077
  0.1250000000000000  0.6250000000000000  0.6251675058775077
  0.6250000000000000  0.1250000000000000  0.1251675058775077
  0.6250000000000000  0.1250000000000000  0.6251675058775077
  0.6250000000000000  0.6250000000000000  0.1251675058775077
  0.6250000000000000  0.6250000000000000  0.6251675058775077
 
  0.00000000E+00  0.00000000E+00  0.00000000E+00
  0.00000000E+00  0.00000000E+00  0.00000000E+00
  0.00000000E+00  0.00000000E+00  0.00000000E+00
  0.00000000E+00  0.00000000E+00  0.00000000E+00
  0.00000000E+00  0.00000000E+00  0.00000000E+00
  0.00000000E+00  0.00000000E+00  0.00000000E+00
  0.00000000E+00  0.00000000E+00  0.00000000E+00
  0.00000000E+00  0.00000000E+00  0.00000000E+00
  0.00000000E+00  0.00000000E+00  0.00000000E+00
  0.00000000E+00  0.00000000E+00  0.00000000E+00
  0.00000000E+00  0.00000000E+00  0.00000000E+00
  0.00000000E+00  0.00000000E+00  0.00000000E+00
  0.00000000E+00  0.00000000E+00  0.00000000E+00
  0.00000000E+00  0.00000000E+00  0.00000000E+00
  0.00000000E+00  0.00000000E+00  0.00000000E+00
  0.00000000E+00  0.00000000E+00  0.00000000E+00
  0.00000000E+00  0.00000000E+00  0.00000000E+00
  0.00000000E+00  0.00000000E+00  0.00000000E+00
  0.00000000E+00  0.00000000E+00  0.00000000E+00
  0.00000000E+00  0.00000000E+00  0.00000000E+00
  0.00000000E+00  0.00000000E+00  0.00000000E+00
  0.00000000E+00  0.00000000E+00  0.00000000E+00
  0.00000000E+00  0.00000000E+00  0.00000000E+00
  0.00000000E+00  0.00000000E+00  0.00000000E+00
  0.00000000E+00  0.00000000E+00  0.00000000E+00
  0.00000000E+00  0.00000000E+00  0.00000000E+00
  0.00000000E+00  0.00000000E+00  0.00000000E+00
  0.00000000E+00  0.00000000E+00  0.00000000E+00
  0.00000000E+00  0.00000000E+00  0.00000000E+00
  0.00000000E+00  0.00000000E+00  0.00000000E+00
  0.00000000E+00  0.00000000E+00  0.00000000E+00
  0.00000000E+00  0.00000000E+00  0.00000000E+00
  0.00000000E+00  0.00000000E+00  0.00000000E+00
  0.00000000E+00  0.00000000E+00  0.00000000E+00
  0.00000000E+00  0.00000000E+00  0.00000000E+00
  0.00000000E+00  0.00000000E+00  0.00000000E+00
  0.00000000E+00  0.00000000E+00  0.00000000E+00
  0.00000000E+00  0.00000000E+00  0.00000000E+00
  0.00000000E+00  0.00000000E+00  0.00000000E+00
  0.00000000E+00  0.00000000E+00  0.00000000E+00
  0.00000000E+00  0.00000000E+00  0.00000000E+00
  0.00000000E+00  0.00000000E+00  0.00000000E+00
  0.00000000E+00  0.00000000E+00  0.00000000E+00
  0.00000000E+00  0.00000000E+00  0.00000000E+00
  0.00000000E+00  0.00000000E+00  0.00000000E+00
  0.00000000E+00  0.00000000E+00  0.00000000E+00
  0.00000000E+00  0.00000000E+00  0.00000000E+00
  0.00000000E+00  0.00000000E+00  0.00000000E+00
  0.00000000E+00  0.00000000E+00  0.00000000E+00
  0.00000000E+00  0.00000000E+00  0.00000000E+00
  0.00000000E+00  0.00000000E+00  0.00000000E+00
  0.00000000E+00  0.00000000E+00  0.00000000E+00
  0.00000000E+00  0.00000000E+00  0.00000000E+00
  0.00000000E+00  0.00000000E+00  0.00000000E+00
  0.00000000E+00  0.00000000E+00  0.00000000E+00
  0.00000000E+00  0.00000000E+00  0.00000000E+00
  0.00000000E+00  0.00000000E+00  0.00000000E+00
  0.00000000E+00  0.00000000E+00  0.00000000E+00
  0.00000000E+00  0.00000000E+00  0.00000000E+00
  0.00000000E+00  0.00000000E+00  0.00000000E+00
  0.00000000E+00  0.00000000E+00  0.00000000E+00
  0.00000000E+00  0.00000000E+00  0.00000000E+00
  0.00000000E+00  0.00000000E+00  0.00000000E+00
  0.00000000E+00  0.00000000E+00  0.00000000E+00
