Si8                                     
   1.00000014768065     
    10.5324849999999994   -0.0531940000000000    0.0000000000000000
    -0.0531940000000000   10.6388739999999995    0.0000000000000000
     0.0000000000000000    0.0000000000000000   10.6388739999999995
   Si
    64
Direct
  0.0000000000000000  0.0000000000000000  0.9995849437579716
  0.0000000000000000  0.0000000000000000  0.4995849437579717
  0.0000000000000000  0.5000000000000000  0.9995849437579716
  0.0000000000000000  0.5000000000000000  0.4995849437579717
  0.5000000000000000  0.0000000000000000  0.9995849437579716
  0.5000000000000000  0.0000000000000000  0.4995849437579717
  0.5000000000000000  0.5000000000000000  0.9995849437579716
  0.5000000000000000  0.5000000000000000  0.4995849437579717
  0.3750000000000000  0.3750000000000000  0.1254150562420284
  0.3750000000000000  0.3750000000000000  0.6254150562420284
  0.3750000000000000  0.8750000000000000  0.1254150562420284
  0.3750000000000000  0.8750000000000000  0.6254150562420284
  0.8750000000000000  0.3750000000000000  0.1254150562420284
  0.8750000000000000  0.3750000000000000  0.6254150562420284
  0.8750000000000000  0.8750000000000000  0.1254150562420284
  0.8750000000000000  0.8750000000000000  0.6254150562420284
  0.0000000000000000  0.2500000000000000  0.2495849437579716
  0.0000000000000000  0.2500000000000000  0.7495849437579716
  0.0000000000000000  0.7500000000000000  0.2495849437579716
  0.0000000000000000  0.7500000000000000  0.7495849437579716
  0.5000000000000000  0.2500000000000000  0.2495849437579716
  0.5000000000000000  0.2500000000000000  0.7495849437579716
  0.5000000000000000  0.7500000000000000  0.2495849437579716
  0.5000000000000000  0.7500000000000000  0.7495849437579716
  0.3750000000000000  0.1250000000000000  0.3754150562420283
  0.3750000000000000  0.1250000000000000  0.8754150562420284
  0.3750000000000000  0.6250000000000000  0.3754150562420283
  0.3750000000000000  0.6250000000000000  0.8754150562420284
  0.8750000000000000  0.1250000000000000  0.3754150562420283
  0.8750000000000000  0.1250000000000000  0.8754150562420284
  0.8750000000000000  0.6250000000000000  0.3754150562420283
  0.8750000000000000  0.6250000000000000  0.8754150562420284
  0.2500000000000000  0.0000000000000000  0.2495849437579716
  0.2500000000000000  0.0000000000000000  0.7495849437579716
  0.2500000000000000  0.5000000000000000  0.2495849437579716
  0.2500000000000000  0.5000000000000000  0.7495849437579716
  0.7500000000000000  0.0000000000000000  0.2495849437579716
  0.7500000000000000  0.0000000000000000  0.7495849437579716
  0.7500000000000000  0.5000000000000000  0.2495849437579716
  0.7500000000000000  0.5000000000000000  0.7495849437579716
  0.1250000000000000  0.3750000000000000  0.3754150562420283
  0.1250000000000000  0.3750000000000000  0.8754150562420284
  0.1250000000000000  0.8750000000000000  0.3754150562420283
  0.1250000000000000  0.8750000000000000  0.8754150562420284
  0.6250000000000000  0.3750000000000000  0.3754150562420283
  0.6250000000000000  0.3750000000000000  0.8754150562420284
  0.6250000000000000  0.8750000000000000  0.3754150562420283
  0.6250000000000000  0.8750000000000000  0.8754150562420284
  0.2500000000000000  0.2500000000000000  0.9995849437579716
  0.2500000000000000  0.2500000000000000  0.4995849437579717
  0.2500000000000000  0.7500000000000000  0.9995849437579716
  0.2500000000000000  0.7500000000000000  0.4995849437579717
  0.7500000000000000  0.2500000000000000  0.9995849437579716
  0.7500000000000000  0.2500000000000000  0.4995849437579717
  0.7500000000000000  0.7500000000000000  0.9995849437579716
  0.7500000000000000  0.7500000000000000  0.4995849437579717
  0.1250000000000000  0.1250000000000000  0.1254150562420284
  0.1250000000000000  0.1250000000000000  0.6254150562420284
  0.1250000000000000  0.6250000000000000  0.1254150562420284
  0.1250000000000000  0.6250000000000000  0.6254150562420284
  0.6250000000000000  0.1250000000000000  0.1254150562420284
  0.6250000000000000  0.1250000000000000  0.6254150562420284
  0.6250000000000000  0.6250000000000000  0.1254150562420284
  0.6250000000000000  0.6250000000000000  0.6254150562420284
 
  0.00000000E+00  0.00000000E+00  0.00000000E+00
  0.00000000E+00  0.00000000E+00  0.00000000E+00
  0.00000000E+00  0.00000000E+00  0.00000000E+00
  0.00000000E+00  0.00000000E+00  0.00000000E+00
  0.00000000E+00  0.00000000E+00  0.00000000E+00
  0.00000000E+00  0.00000000E+00  0.00000000E+00
  0.00000000E+00  0.00000000E+00  0.00000000E+00
  0.00000000E+00  0.00000000E+00  0.00000000E+00
  0.00000000E+00  0.00000000E+00  0.00000000E+00
  0.00000000E+00  0.00000000E+00  0.00000000E+00
  0.00000000E+00  0.00000000E+00  0.00000000E+00
  0.00000000E+00  0.00000000E+00  0.00000000E+00
  0.00000000E+00  0.00000000E+00  0.00000000E+00
  0.00000000E+00  0.00000000E+00  0.00000000E+00
  0.00000000E+00  0.00000000E+00  0.00000000E+00
  0.00000000E+00  0.00000000E+00  0.00000000E+00
  0.00000000E+00  0.00000000E+00  0.00000000E+00
  0.00000000E+00  0.00000000E+00  0.00000000E+00
  0.00000000E+00  0.00000000E+00  0.00000000E+00
  0.00000000E+00  0.00000000E+00  0.00000000E+00
  0.00000000E+00  0.00000000E+00  0.00000000E+00
  0.00000000E+00  0.00000000E+00  0.00000000E+00
  0.00000000E+00  0.00000000E+00  0.00000000E+00
  0.00000000E+00  0.00000000E+00  0.00000000E+00
  0.00000000E+00  0.00000000E+00  0.00000000E+00
  0.00000000E+00  0.00000000E+00  0.00000000E+00
  0.00000000E+00  0.00000000E+00  0.00000000E+00
  0.00000000E+00  0.00000000E+00  0.00000000E+00
  0.00000000E+00  0.00000000E+00  0.00000000E+00
  0.00000000E+00  0.00000000E+00  0.00000000E+00
  0.00000000E+00  0.00000000E+00  0.00000000E+00
  0.00000000E+00  0.00000000E+00  0.00000000E+00
  0.00000000E+00  0.00000000E+00  0.00000000E+00
  0.00000000E+00  0.00000000E+00  0.00000000E+00
  0.00000000E+00  0.00000000E+00  0.00000000E+00
  0.00000000E+00  0.00000000E+00  0.00000000E+00
  0.00000000E+00  0.00000000E+00  0.00000000E+00
  0.00000000E+00  0.00000000E+00  0.00000000E+00
  0.00000000E+00  0.00000000E+00  0.00000000E+00
  0.00000000E+00  0.00000000E+00  0.00000000E+00
  0.00000000E+00  0.00000000E+00  0.00000000E+00
  0.00000000E+00  0.00000000E+00  0.00000000E+00
  0.00000000E+00  0.00000000E+00  0.00000000E+00
  0.00000000E+00  0.00000000E+00  0.00000000E+00
  0.00000000E+00  0.00000000E+00  0.00000000E+00
  0.00000000E+00  0.00000000E+00  0.00000000E+00
  0.00000000E+00  0.00000000E+00  0.00000000E+00
  0.00000000E+00  0.00000000E+00  0.00000000E+00
  0.00000000E+00  0.00000000E+00  0.00000000E+00
  0.00000000E+00  0.00000000E+00  0.00000000E+00
  0.00000000E+00  0.00000000E+00  0.00000000E+00
  0.00000000E+00  0.00000000E+00  0.00000000E+00
  0.00000000E+00  0.00000000E+00  0.00000000E+00
  0.00000000E+00  0.00000000E+00  0.00000000E+00
  0.00000000E+00  0.00000000E+00  0.00000000E+00
  0.00000000E+00  0.00000000E+00  0.00000000E+00
  0.00000000E+00  0.00000000E+00  0.00000000E+00
  0.00000000E+00  0.00000000E+00  0.00000000E+00
  0.00000000E+00  0.00000000E+00  0.00000000E+00
  0.00000000E+00  0.00000000E+00  0.00000000E+00
  0.00000000E+00  0.00000000E+00  0.00000000E+00
  0.00000000E+00  0.00000000E+00  0.00000000E+00
  0.00000000E+00  0.00000000E+00  0.00000000E+00
  0.00000000E+00  0.00000000E+00  0.00000000E+00
