Si8                                     
   1.00000014768065     
    10.6362889999999997   -0.0809870000000000    0.0000000000000000
    -0.0809870000000000   10.7982630000000004    0.0000000000000000
     0.0000000000000000    0.0000000000000000   10.7982630000000004
   Si
    64
Direct
  0.0000000000000000  0.0000000000000000  0.9994443113233040
  0.0000000000000000  0.0000000000000000  0.4994443113233040
  0.0000000000000000  0.5000000000000000  0.9994443113233040
  0.0000000000000000  0.5000000000000000  0.4994443113233040
  0.5000000000000000  0.0000000000000000  0.9994443113233040
  0.5000000000000000  0.0000000000000000  0.4994443113233040
  0.5000000000000000  0.5000000000000000  0.9994443113233040
  0.5000000000000000  0.5000000000000000  0.4994443113233040
  0.3750000000000000  0.3750000000000000  0.1255556886766960
  0.3750000000000000  0.3750000000000000  0.6255556886766960
  0.3750000000000000  0.8750000000000000  0.1255556886766960
  0.3750000000000000  0.8750000000000000  0.6255556886766960
  0.8750000000000000  0.3750000000000000  0.1255556886766960
  0.8750000000000000  0.3750000000000000  0.6255556886766960
  0.8750000000000000  0.8750000000000000  0.1255556886766960
  0.8750000000000000  0.8750000000000000  0.6255556886766960
  0.0000000000000000  0.2500000000000000  0.2494443113233040
  0.0000000000000000  0.2500000000000000  0.7494443113233040
  0.0000000000000000  0.7500000000000000  0.2494443113233040
  0.0000000000000000  0.7500000000000000  0.7494443113233040
  0.5000000000000000  0.2500000000000000  0.2494443113233040
  0.5000000000000000  0.2500000000000000  0.7494443113233040
  0.5000000000000000  0.7500000000000000  0.2494443113233040
  0.5000000000000000  0.7500000000000000  0.7494443113233040
  0.3750000000000000  0.1250000000000000  0.3755556886766960
  0.3750000000000000  0.1250000000000000  0.8755556886766960
  0.3750000000000000  0.6250000000000000  0.3755556886766960
  0.3750000000000000  0.6250000000000000  0.8755556886766960
  0.8750000000000000  0.1250000000000000  0.3755556886766960
  0.8750000000000000  0.1250000000000000  0.8755556886766960
  0.8750000000000000  0.6250000000000000  0.3755556886766960
  0.8750000000000000  0.6250000000000000  0.8755556886766960
  0.2500000000000000  0.0000000000000000  0.2494443113233040
  0.2500000000000000  0.0000000000000000  0.7494443113233040
  0.2500000000000000  0.5000000000000000  0.2494443113233040
  0.2500000000000000  0.5000000000000000  0.7494443113233040
  0.7500000000000000  0.0000000000000000  0.2494443113233040
  0.7500000000000000  0.0000000000000000  0.7494443113233040
  0.7500000000000000  0.5000000000000000  0.2494443113233040
  0.7500000000000000  0.5000000000000000  0.7494443113233040
  0.1250000000000000  0.3750000000000000  0.3755556886766960
  0.1250000000000000  0.3750000000000000  0.8755556886766960
  0.1250000000000000  0.8750000000000000  0.3755556886766960
  0.1250000000000000  0.8750000000000000  0.8755556886766960
  0.6250000000000000  0.3750000000000000  0.3755556886766960
  0.6250000000000000  0.3750000000000000  0.8755556886766960
  0.6250000000000000  0.8750000000000000  0.3755556886766960
  0.6250000000000000  0.8750000000000000  0.8755556886766960
  0.2500000000000000  0.2500000000000000  0.9994443113233040
  0.2500000000000000  0.2500000000000000  0.4994443113233040
  0.2500000000000000  0.7500000000000000  0.9994443113233040
  0.2500000000000000  0.7500000000000000  0.4994443113233040
  0.7500000000000000  0.2500000000000000  0.9994443113233040
  0.7500000000000000  0.2500000000000000  0.4994443113233040
  0.7500000000000000  0.7500000000000000  0.9994443113233040
  0.7500000000000000  0.7500000000000000  0.4994443113233040
  0.1250000000000000  0.1250000000000000  0.1255556886766960
  0.1250000000000000  0.1250000000000000  0.6255556886766960
  0.1250000000000000  0.6250000000000000  0.1255556886766960
  0.1250000000000000  0.6250000000000000  0.6255556886766960
  0.6250000000000000  0.1250000000000000  0.1255556886766960
  0.6250000000000000  0.1250000000000000  0.6255556886766960
  0.6250000000000000  0.6250000000000000  0.1255556886766960
  0.6250000000000000  0.6250000000000000  0.6255556886766960
 
  0.00000000E+00  0.00000000E+00  0.00000000E+00
  0.00000000E+00  0.00000000E+00  0.00000000E+00
  0.00000000E+00  0.00000000E+00  0.00000000E+00
  0.00000000E+00  0.00000000E+00  0.00000000E+00
  0.00000000E+00  0.00000000E+00  0.00000000E+00
  0.00000000E+00  0.00000000E+00  0.00000000E+00
  0.00000000E+00  0.00000000E+00  0.00000000E+00
  0.00000000E+00  0.00000000E+00  0.00000000E+00
  0.00000000E+00  0.00000000E+00  0.00000000E+00
  0.00000000E+00  0.00000000E+00  0.00000000E+00
  0.00000000E+00  0.00000000E+00  0.00000000E+00
  0.00000000E+00  0.00000000E+00  0.00000000E+00
  0.00000000E+00  0.00000000E+00  0.00000000E+00
  0.00000000E+00  0.00000000E+00  0.00000000E+00
  0.00000000E+00  0.00000000E+00  0.00000000E+00
  0.00000000E+00  0.00000000E+00  0.00000000E+00
  0.00000000E+00  0.00000000E+00  0.00000000E+00
  0.00000000E+00  0.00000000E+00  0.00000000E+00
  0.00000000E+00  0.00000000E+00  0.00000000E+00
  0.00000000E+00  0.00000000E+00  0.00000000E+00
  0.00000000E+00  0.00000000E+00  0.00000000E+00
  0.00000000E+00  0.00000000E+00  0.00000000E+00
  0.00000000E+00  0.00000000E+00  0.00000000E+00
  0.00000000E+00  0.00000000E+00  0.00000000E+00
  0.00000000E+00  0.00000000E+00  0.00000000E+00
  0.00000000E+00  0.00000000E+00  0.00000000E+00
  0.00000000E+00  0.00000000E+00  0.00000000E+00
  0.00000000E+00  0.00000000E+00  0.00000000E+00
  0.00000000E+00  0.00000000E+00  0.00000000E+00
  0.00000000E+00  0.00000000E+00  0.00000000E+00
  0.00000000E+00  0.00000000E+00  0.00000000E+00
  0.00000000E+00  0.00000000E+00  0.00000000E+00
  0.00000000E+00  0.00000000E+00  0.00000000E+00
  0.00000000E+00  0.00000000E+00  0.00000000E+00
  0.00000000E+00  0.00000000E+00  0.00000000E+00
  0.00000000E+00  0.00000000E+00  0.00000000E+00
  0.00000000E+00  0.00000000E+00  0.00000000E+00
  0.00000000E+00  0.00000000E+00  0.00000000E+00
  0.00000000E+00  0.00000000E+00  0.00000000E+00
  0.00000000E+00  0.00000000E+00  0.00000000E+00
  0.00000000E+00  0.00000000E+00  0.00000000E+00
  0.00000000E+00  0.00000000E+00  0.00000000E+00
  0.00000000E+00  0.00000000E+00  0.00000000E+00
  0.00000000E+00  0.00000000E+00  0.00000000E+00
  0.00000000E+00  0.00000000E+00  0.00000000E+00
  0.00000000E+00  0.00000000E+00  0.00000000E+00
  0.00000000E+00  0.00000000E+00  0.00000000E+00
  0.00000000E+00  0.00000000E+00  0.00000000E+00
  0.00000000E+00  0.00000000E+00  0.00000000E+00
  0.00000000E+00  0.00000000E+00  0.00000000E+00
  0.00000000E+00  0.00000000E+00  0.00000000E+00
  0.00000000E+00  0.00000000E+00  0.00000000E+00
  0.00000000E+00  0.00000000E+00  0.00000000E+00
  0.00000000E+00  0.00000000E+00  0.00000000E+00
  0.00000000E+00  0.00000000E+00  0.00000000E+00
  0.00000000E+00  0.00000000E+00  0.00000000E+00
  0.00000000E+00  0.00000000E+00  0.00000000E+00
  0.00000000E+00  0.00000000E+00  0.00000000E+00
  0.00000000E+00  0.00000000E+00  0.00000000E+00
  0.00000000E+00  0.00000000E+00  0.00000000E+00
  0.00000000E+00  0.00000000E+00  0.00000000E+00
  0.00000000E+00  0.00000000E+00  0.00000000E+00
  0.00000000E+00  0.00000000E+00  0.00000000E+00
  0.00000000E+00  0.00000000E+00  0.00000000E+00
