Si8                                     
   1.00000014768065     
    10.7425689999999996    0.0793790000000000    0.0000000000000000
     0.0793790000000000   10.5838120000000000    0.0000000000000000
     0.0000000000000000    0.0000000000000000   10.5838120000000000
   Si
    64
Direct
  0.0000000000000000  0.0000000000000000  0.0006201637802634
  0.0000000000000000  0.0000000000000000  0.5006201637802633
  0.0000000000000000  0.5000000000000000  0.0006201637802634
  0.0000000000000000  0.5000000000000000  0.5006201637802633
  0.5000000000000000  0.0000000000000000  0.0006201637802634
  0.5000000000000000  0.0000000000000000  0.5006201637802633
  0.5000000000000000  0.5000000000000000  0.0006201637802634
  0.5000000000000000  0.5000000000000000  0.5006201637802633
  0.3750000000000000  0.3750000000000000  0.1243798362197367
  0.3750000000000000  0.3750000000000000  0.6243798362197367
  0.3750000000000000  0.8750000000000000  0.1243798362197367
  0.3750000000000000  0.8750000000000000  0.6243798362197367
  0.8750000000000000  0.3750000000000000  0.1243798362197367
  0.8750000000000000  0.3750000000000000  0.6243798362197367
  0.8750000000000000  0.8750000000000000  0.1243798362197367
  0.8750000000000000  0.8750000000000000  0.6243798362197367
  0.0000000000000000  0.2500000000000000  0.2506201637802634
  0.0000000000000000  0.2500000000000000  0.7506201637802633
  0.0000000000000000  0.7500000000000000  0.2506201637802634
  0.0000000000000000  0.7500000000000000  0.7506201637802633
  0.5000000000000000  0.2500000000000000  0.2506201637802634
  0.5000000000000000  0.2500000000000000  0.7506201637802633
  0.5000000000000000  0.7500000000000000  0.2506201637802634
  0.5000000000000000  0.7500000000000000  0.7506201637802633
  0.3750000000000000  0.1250000000000000  0.3743798362197366
  0.3750000000000000  0.1250000000000000  0.8743798362197367
  0.3750000000000000  0.6250000000000000  0.3743798362197366
  0.3750000000000000  0.6250000000000000  0.8743798362197367
  0.8750000000000000  0.1250000000000000  0.3743798362197366
  0.8750000000000000  0.1250000000000000  0.8743798362197367
  0.8750000000000000  0.6250000000000000  0.3743798362197366
  0.8750000000000000  0.6250000000000000  0.8743798362197367
  0.2500000000000000  0.0000000000000000  0.2506201637802634
  0.2500000000000000  0.0000000000000000  0.7506201637802633
  0.2500000000000000  0.5000000000000000  0.2506201637802634
  0.2500000000000000  0.5000000000000000  0.7506201637802633
  0.7500000000000000  0.0000000000000000  0.2506201637802634
  0.7500000000000000  0.0000000000000000  0.7506201637802633
  0.7500000000000000  0.5000000000000000  0.2506201637802634
  0.7500000000000000  0.5000000000000000  0.7506201637802633
  0.1250000000000000  0.3750000000000000  0.3743798362197366
  0.1250000000000000  0.3750000000000000  0.8743798362197367
  0.1250000000000000  0.8750000000000000  0.3743798362197366
  0.1250000000000000  0.8750000000000000  0.8743798362197367
  0.6250000000000000  0.3750000000000000  0.3743798362197366
  0.6250000000000000  0.3750000000000000  0.8743798362197367
  0.6250000000000000  0.8750000000000000  0.3743798362197366
  0.6250000000000000  0.8750000000000000  0.8743798362197367
  0.2500000000000000  0.2500000000000000  0.0006201637802634
  0.2500000000000000  0.2500000000000000  0.5006201637802633
  0.2500000000000000  0.7500000000000000  0.0006201637802634
  0.2500000000000000  0.7500000000000000  0.5006201637802633
  0.7500000000000000  0.2500000000000000  0.0006201637802634
  0.7500000000000000  0.2500000000000000  0.5006201637802633
  0.7500000000000000  0.7500000000000000  0.0006201637802634
  0.7500000000000000  0.7500000000000000  0.5006201637802633
  0.1250000000000000  0.1250000000000000  0.1243798362197367
  0.1250000000000000  0.1250000000000000  0.6243798362197367
  0.1250000000000000  0.6250000000000000  0.1243798362197367
  0.1250000000000000  0.6250000000000000  0.6243798362197367
  0.6250000000000000  0.1250000000000000  0.1243798362197367
  0.6250000000000000  0.1250000000000000  0.6243798362197367
  0.6250000000000000  0.6250000000000000  0.1243798362197367
  0.6250000000000000  0.6250000000000000  0.6243798362197367
 
  0.00000000E+00  0.00000000E+00  0.00000000E+00
  0.00000000E+00  0.00000000E+00  0.00000000E+00
  0.00000000E+00  0.00000000E+00  0.00000000E+00
  0.00000000E+00  0.00000000E+00  0.00000000E+00
  0.00000000E+00  0.00000000E+00  0.00000000E+00
  0.00000000E+00  0.00000000E+00  0.00000000E+00
  0.00000000E+00  0.00000000E+00  0.00000000E+00
  0.00000000E+00  0.00000000E+00  0.00000000E+00
  0.00000000E+00  0.00000000E+00  0.00000000E+00
  0.00000000E+00  0.00000000E+00  0.00000000E+00
  0.00000000E+00  0.00000000E+00  0.00000000E+00
  0.00000000E+00  0.00000000E+00  0.00000000E+00
  0.00000000E+00  0.00000000E+00  0.00000000E+00
  0.00000000E+00  0.00000000E+00  0.00000000E+00
  0.00000000E+00  0.00000000E+00  0.00000000E+00
  0.00000000E+00  0.00000000E+00  0.00000000E+00
  0.00000000E+00  0.00000000E+00  0.00000000E+00
  0.00000000E+00  0.00000000E+00  0.00000000E+00
  0.00000000E+00  0.00000000E+00  0.00000000E+00
  0.00000000E+00  0.00000000E+00  0.00000000E+00
  0.00000000E+00  0.00000000E+00  0.00000000E+00
  0.00000000E+00  0.00000000E+00  0.00000000E+00
  0.00000000E+00  0.00000000E+00  0.00000000E+00
  0.00000000E+00  0.00000000E+00  0.00000000E+00
  0.00000000E+00  0.00000000E+00  0.00000000E+00
  0.00000000E+00  0.00000000E+00  0.00000000E+00
  0.00000000E+00  0.00000000E+00  0.00000000E+00
  0.00000000E+00  0.00000000E+00  0.00000000E+00
  0.00000000E+00  0.00000000E+00  0.00000000E+00
  0.00000000E+00  0.00000000E+00  0.00000000E+00
  0.00000000E+00  0.00000000E+00  0.00000000E+00
  0.00000000E+00  0.00000000E+00  0.00000000E+00
  0.00000000E+00  0.00000000E+00  0.00000000E+00
  0.00000000E+00  0.00000000E+00  0.00000000E+00
  0.00000000E+00  0.00000000E+00  0.00000000E+00
  0.00000000E+00  0.00000000E+00  0.00000000E+00
  0.00000000E+00  0.00000000E+00  0.00000000E+00
  0.00000000E+00  0.00000000E+00  0.00000000E+00
  0.00000000E+00  0.00000000E+00  0.00000000E+00
  0.00000000E+00  0.00000000E+00  0.00000000E+00
  0.00000000E+00  0.00000000E+00  0.00000000E+00
  0.00000000E+00  0.00000000E+00  0.00000000E+00
  0.00000000E+00  0.00000000E+00  0.00000000E+00
  0.00000000E+00  0.00000000E+00  0.00000000E+00
  0.00000000E+00  0.00000000E+00  0.00000000E+00
  0.00000000E+00  0.00000000E+00  0.00000000E+00
  0.00000000E+00  0.00000000E+00  0.00000000E+00
  0.00000000E+00  0.00000000E+00  0.00000000E+00
  0.00000000E+00  0.00000000E+00  0.00000000E+00
  0.00000000E+00  0.00000000E+00  0.00000000E+00
  0.00000000E+00  0.00000000E+00  0.00000000E+00
  0.00000000E+00  0.00000000E+00  0.00000000E+00
  0.00000000E+00  0.00000000E+00  0.00000000E+00
  0.00000000E+00  0.00000000E+00  0.00000000E+00
  0.00000000E+00  0.00000000E+00  0.00000000E+00
  0.00000000E+00  0.00000000E+00  0.00000000E+00
  0.00000000E+00  0.00000000E+00  0.00000000E+00
  0.00000000E+00  0.00000000E+00  0.00000000E+00
  0.00000000E+00  0.00000000E+00  0.00000000E+00
  0.00000000E+00  0.00000000E+00  0.00000000E+00
  0.00000000E+00  0.00000000E+00  0.00000000E+00
  0.00000000E+00  0.00000000E+00  0.00000000E+00
  0.00000000E+00  0.00000000E+00  0.00000000E+00
  0.00000000E+00  0.00000000E+00  0.00000000E+00
