Si8                                     
   1.00000014768065     
    10.6469170000000002   -0.0267510000000000    0.0000000000000000
    -0.0267510000000000   10.7004190000000001    0.0000000000000000
     0.0000000000000000    0.0000000000000000   10.7004190000000001
   Si
    64
Direct
  0.0000000000000000  0.0000000000000000  0.9998067982000290
  0.0000000000000000  0.0000000000000000  0.4998067982000291
  0.0000000000000000  0.5000000000000000  0.9998067982000290
  0.0000000000000000  0.5000000000000000  0.4998067982000291
  0.5000000000000000  0.0000000000000000  0.9998067982000290
  0.5000000000000000  0.0000000000000000  0.4998067982000291
  0.5000000000000000  0.5000000000000000  0.9998067982000290
  0.5000000000000000  0.5000000000000000  0.4998067982000291
  0.3750000000000000  0.3750000000000000  0.1251932017999709
  0.3750000000000000  0.3750000000000000  0.6251932017999710
  0.3750000000000000  0.8750000000000000  0.1251932017999709
  0.3750000000000000  0.8750000000000000  0.6251932017999710
  0.8750000000000000  0.3750000000000000  0.1251932017999709
  0.8750000000000000  0.3750000000000000  0.6251932017999710
  0.8750000000000000  0.8750000000000000  0.1251932017999709
  0.8750000000000000  0.8750000000000000  0.6251932017999710
  0.0000000000000000  0.2500000000000000  0.2498067982000291
  0.0000000000000000  0.2500000000000000  0.7498067982000290
  0.0000000000000000  0.7500000000000000  0.2498067982000291
  0.0000000000000000  0.7500000000000000  0.7498067982000290
  0.5000000000000000  0.2500000000000000  0.2498067982000291
  0.5000000000000000  0.2500000000000000  0.7498067982000290
  0.5000000000000000  0.7500000000000000  0.2498067982000291
  0.5000000000000000  0.7500000000000000  0.7498067982000290
  0.3750000000000000  0.1250000000000000  0.3751932017999709
  0.3750000000000000  0.1250000000000000  0.8751932017999710
  0.3750000000000000  0.6250000000000000  0.3751932017999709
  0.3750000000000000  0.6250000000000000  0.8751932017999710
  0.8750000000000000  0.1250000000000000  0.3751932017999709
  0.8750000000000000  0.1250000000000000  0.8751932017999710
  0.8750000000000000  0.6250000000000000  0.3751932017999709
  0.8750000000000000  0.6250000000000000  0.8751932017999710
  0.2500000000000000  0.0000000000000000  0.2498067982000291
  0.2500000000000000  0.0000000000000000  0.7498067982000290
  0.2500000000000000  0.5000000000000000  0.2498067982000291
  0.2500000000000000  0.5000000000000000  0.7498067982000290
  0.7500000000000000  0.0000000000000000  0.2498067982000291
  0.7500000000000000  0.0000000000000000  0.7498067982000290
  0.7500000000000000  0.5000000000000000  0.2498067982000291
  0.7500000000000000  0.5000000000000000  0.7498067982000290
  0.1250000000000000  0.3750000000000000  0.3751932017999709
  0.1250000000000000  0.3750000000000000  0.8751932017999710
  0.1250000000000000  0.8750000000000000  0.3751932017999709
  0.1250000000000000  0.8750000000000000  0.8751932017999710
  0.6250000000000000  0.3750000000000000  0.3751932017999709
  0.6250000000000000  0.3750000000000000  0.8751932017999710
  0.6250000000000000  0.8750000000000000  0.3751932017999709
  0.6250000000000000  0.8750000000000000  0.8751932017999710
  0.2500000000000000  0.2500000000000000  0.9998067982000290
  0.2500000000000000  0.2500000000000000  0.4998067982000291
  0.2500000000000000  0.7500000000000000  0.9998067982000290
  0.2500000000000000  0.7500000000000000  0.4998067982000291
  0.7500000000000000  0.2500000000000000  0.9998067982000290
  0.7500000000000000  0.2500000000000000  0.4998067982000291
  0.7500000000000000  0.7500000000000000  0.9998067982000290
  0.7500000000000000  0.7500000000000000  0.4998067982000291
  0.1250000000000000  0.1250000000000000  0.1251932017999709
  0.1250000000000000  0.1250000000000000  0.6251932017999710
  0.1250000000000000  0.6250000000000000  0.1251932017999709
  0.1250000000000000  0.6250000000000000  0.6251932017999710
  0.6250000000000000  0.1250000000000000  0.1251932017999709
  0.6250000000000000  0.1250000000000000  0.6251932017999710
  0.6250000000000000  0.6250000000000000  0.1251932017999709
  0.6250000000000000  0.6250000000000000  0.6251932017999710
 
  0.00000000E+00  0.00000000E+00  0.00000000E+00
  0.00000000E+00  0.00000000E+00  0.00000000E+00
  0.00000000E+00  0.00000000E+00  0.00000000E+00
  0.00000000E+00  0.00000000E+00  0.00000000E+00
  0.00000000E+00  0.00000000E+00  0.00000000E+00
  0.00000000E+00  0.00000000E+00  0.00000000E+00
  0.00000000E+00  0.00000000E+00  0.00000000E+00
  0.00000000E+00  0.00000000E+00  0.00000000E+00
  0.00000000E+00  0.00000000E+00  0.00000000E+00
  0.00000000E+00  0.00000000E+00  0.00000000E+00
  0.00000000E+00  0.00000000E+00  0.00000000E+00
  0.00000000E+00  0.00000000E+00  0.00000000E+00
  0.00000000E+00  0.00000000E+00  0.00000000E+00
  0.00000000E+00  0.00000000E+00  0.00000000E+00
  0.00000000E+00  0.00000000E+00  0.00000000E+00
  0.00000000E+00  0.00000000E+00  0.00000000E+00
  0.00000000E+00  0.00000000E+00  0.00000000E+00
  0.00000000E+00  0.00000000E+00  0.00000000E+00
  0.00000000E+00  0.00000000E+00  0.00000000E+00
  0.00000000E+00  0.00000000E+00  0.00000000E+00
  0.00000000E+00  0.00000000E+00  0.00000000E+00
  0.00000000E+00  0.00000000E+00  0.00000000E+00
  0.00000000E+00  0.00000000E+00  0.00000000E+00
  0.00000000E+00  0.00000000E+00  0.00000000E+00
  0.00000000E+00  0.00000000E+00  0.00000000E+00
  0.00000000E+00  0.00000000E+00  0.00000000E+00
  0.00000000E+00  0.00000000E+00  0.00000000E+00
  0.00000000E+00  0.00000000E+00  0.00000000E+00
  0.00000000E+00  0.00000000E+00  0.00000000E+00
  0.00000000E+00  0.00000000E+00  0.00000000E+00
  0.00000000E+00  0.00000000E+00  0.00000000E+00
  0.00000000E+00  0.00000000E+00  0.00000000E+00
  0.00000000E+00  0.00000000E+00  0.00000000E+00
  0.00000000E+00  0.00000000E+00  0.00000000E+00
  0.00000000E+00  0.00000000E+00  0.00000000E+00
  0.00000000E+00  0.00000000E+00  0.00000000E+00
  0.00000000E+00  0.00000000E+00  0.00000000E+00
  0.00000000E+00  0.00000000E+00  0.00000000E+00
  0.00000000E+00  0.00000000E+00  0.00000000E+00
  0.00000000E+00  0.00000000E+00  0.00000000E+00
  0.00000000E+00  0.00000000E+00  0.00000000E+00
  0.00000000E+00  0.00000000E+00  0.00000000E+00
  0.00000000E+00  0.00000000E+00  0.00000000E+00
  0.00000000E+00  0.00000000E+00  0.00000000E+00
  0.00000000E+00  0.00000000E+00  0.00000000E+00
  0.00000000E+00  0.00000000E+00  0.00000000E+00
  0.00000000E+00  0.00000000E+00  0.00000000E+00
  0.00000000E+00  0.00000000E+00  0.00000000E+00
  0.00000000E+00  0.00000000E+00  0.00000000E+00
  0.00000000E+00  0.00000000E+00  0.00000000E+00
  0.00000000E+00  0.00000000E+00  0.00000000E+00
  0.00000000E+00  0.00000000E+00  0.00000000E+00
  0.00000000E+00  0.00000000E+00  0.00000000E+00
  0.00000000E+00  0.00000000E+00  0.00000000E+00
  0.00000000E+00  0.00000000E+00  0.00000000E+00
  0.00000000E+00  0.00000000E+00  0.00000000E+00
  0.00000000E+00  0.00000000E+00  0.00000000E+00
  0.00000000E+00  0.00000000E+00  0.00000000E+00
  0.00000000E+00  0.00000000E+00  0.00000000E+00
  0.00000000E+00  0.00000000E+00  0.00000000E+00
  0.00000000E+00  0.00000000E+00  0.00000000E+00
  0.00000000E+00  0.00000000E+00  0.00000000E+00
  0.00000000E+00  0.00000000E+00  0.00000000E+00
  0.00000000E+00  0.00000000E+00  0.00000000E+00
