Si8                                     
   1.00000014768065     
    10.7083940000000002   -0.0815360000000000    0.0000000000000000
    -0.0815360000000000   10.8714659999999999    0.0000000000000000
     0.0000000000000000    0.0000000000000000   10.8714659999999999
   Si
    64
Direct
  0.0000000000000000  0.0000000000000000  0.9994770536754223
  0.0000000000000000  0.0000000000000000  0.4994770536754223
  0.0000000000000000  0.5000000000000000  0.9994770536754223
  0.0000000000000000  0.5000000000000000  0.4994770536754223
  0.5000000000000000  0.0000000000000000  0.9994770536754223
  0.5000000000000000  0.0000000000000000  0.4994770536754223
  0.5000000000000000  0.5000000000000000  0.9994770536754223
  0.5000000000000000  0.5000000000000000  0.4994770536754223
  0.3750000000000000  0.3750000000000000  0.1255229463245777
  0.3750000000000000  0.3750000000000000  0.6255229463245777
  0.3750000000000000  0.8750000000000000  0.1255229463245777
  0.3750000000000000  0.8750000000000000  0.6255229463245777
  0.8750000000000000  0.3750000000000000  0.1255229463245777
  0.8750000000000000  0.3750000000000000  0.6255229463245777
  0.8750000000000000  0.8750000000000000  0.1255229463245777
  0.8750000000000000  0.8750000000000000  0.6255229463245777
  0.0000000000000000  0.2500000000000000  0.2494770536754223
  0.0000000000000000  0.2500000000000000  0.7494770536754223
  0.0000000000000000  0.7500000000000000  0.2494770536754223
  0.0000000000000000  0.7500000000000000  0.7494770536754223
  0.5000000000000000  0.2500000000000000  0.2494770536754223
  0.5000000000000000  0.2500000000000000  0.7494770536754223
  0.5000000000000000  0.7500000000000000  0.2494770536754223
  0.5000000000000000  0.7500000000000000  0.7494770536754223
  0.3750000000000000  0.1250000000000000  0.3755229463245777
  0.3750000000000000  0.1250000000000000  0.8755229463245777
  0.3750000000000000  0.6250000000000000  0.3755229463245777
  0.3750000000000000  0.6250000000000000  0.8755229463245777
  0.8750000000000000  0.1250000000000000  0.3755229463245777
  0.8750000000000000  0.1250000000000000  0.8755229463245777
  0.8750000000000000  0.6250000000000000  0.3755229463245777
  0.8750000000000000  0.6250000000000000  0.8755229463245777
  0.2500000000000000  0.0000000000000000  0.2494770536754223
  0.2500000000000000  0.0000000000000000  0.7494770536754223
  0.2500000000000000  0.5000000000000000  0.2494770536754223
  0.2500000000000000  0.5000000000000000  0.7494770536754223
  0.7500000000000000  0.0000000000000000  0.2494770536754223
  0.7500000000000000  0.0000000000000000  0.7494770536754223
  0.7500000000000000  0.5000000000000000  0.2494770536754223
  0.7500000000000000  0.5000000000000000  0.7494770536754223
  0.1250000000000000  0.3750000000000000  0.3755229463245777
  0.1250000000000000  0.3750000000000000  0.8755229463245777
  0.1250000000000000  0.8750000000000000  0.3755229463245777
  0.1250000000000000  0.8750000000000000  0.8755229463245777
  0.6250000000000000  0.3750000000000000  0.3755229463245777
  0.6250000000000000  0.3750000000000000  0.8755229463245777
  0.6250000000000000  0.8750000000000000  0.3755229463245777
  0.6250000000000000  0.8750000000000000  0.8755229463245777
  0.2500000000000000  0.2500000000000000  0.9994770536754223
  0.2500000000000000  0.2500000000000000  0.4994770536754223
  0.2500000000000000  0.7500000000000000  0.9994770536754223
  0.2500000000000000  0.7500000000000000  0.4994770536754223
  0.7500000000000000  0.2500000000000000  0.9994770536754223
  0.7500000000000000  0.2500000000000000  0.4994770536754223
  0.7500000000000000  0.7500000000000000  0.9994770536754223
  0.7500000000000000  0.7500000000000000  0.4994770536754223
  0.1250000000000000  0.1250000000000000  0.1255229463245777
  0.1250000000000000  0.1250000000000000  0.6255229463245777
  0.1250000000000000  0.6250000000000000  0.1255229463245777
  0.1250000000000000  0.6250000000000000  0.6255229463245777
  0.6250000000000000  0.1250000000000000  0.1255229463245777
  0.6250000000000000  0.1250000000000000  0.6255229463245777
  0.6250000000000000  0.6250000000000000  0.1255229463245777
  0.6250000000000000  0.6250000000000000  0.6255229463245777
 
  0.00000000E+00  0.00000000E+00  0.00000000E+00
  0.00000000E+00  0.00000000E+00  0.00000000E+00
  0.00000000E+00  0.00000000E+00  0.00000000E+00
  0.00000000E+00  0.00000000E+00  0.00000000E+00
  0.00000000E+00  0.00000000E+00  0.00000000E+00
  0.00000000E+00  0.00000000E+00  0.00000000E+00
  0.00000000E+00  0.00000000E+00  0.00000000E+00
  0.00000000E+00  0.00000000E+00  0.00000000E+00
  0.00000000E+00  0.00000000E+00  0.00000000E+00
  0.00000000E+00  0.00000000E+00  0.00000000E+00
  0.00000000E+00  0.00000000E+00  0.00000000E+00
  0.00000000E+00  0.00000000E+00  0.00000000E+00
  0.00000000E+00  0.00000000E+00  0.00000000E+00
  0.00000000E+00  0.00000000E+00  0.00000000E+00
  0.00000000E+00  0.00000000E+00  0.00000000E+00
  0.00000000E+00  0.00000000E+00  0.00000000E+00
  0.00000000E+00  0.00000000E+00  0.00000000E+00
  0.00000000E+00  0.00000000E+00  0.00000000E+00
  0.00000000E+00  0.00000000E+00  0.00000000E+00
  0.00000000E+00  0.00000000E+00  0.00000000E+00
  0.00000000E+00  0.00000000E+00  0.00000000E+00
  0.00000000E+00  0.00000000E+00  0.00000000E+00
  0.00000000E+00  0.00000000E+00  0.00000000E+00
  0.00000000E+00  0.00000000E+00  0.00000000E+00
  0.00000000E+00  0.00000000E+00  0.00000000E+00
  0.00000000E+00  0.00000000E+00  0.00000000E+00
  0.00000000E+00  0.00000000E+00  0.00000000E+00
  0.00000000E+00  0.00000000E+00  0.00000000E+00
  0.00000000E+00  0.00000000E+00  0.00000000E+00
  0.00000000E+00  0.00000000E+00  0.00000000E+00
  0.00000000E+00  0.00000000E+00  0.00000000E+00
  0.00000000E+00  0.00000000E+00  0.00000000E+00
  0.00000000E+00  0.00000000E+00  0.00000000E+00
  0.00000000E+00  0.00000000E+00  0.00000000E+00
  0.00000000E+00  0.00000000E+00  0.00000000E+00
  0.00000000E+00  0.00000000E+00  0.00000000E+00
  0.00000000E+00  0.00000000E+00  0.00000000E+00
  0.00000000E+00  0.00000000E+00  0.00000000E+00
  0.00000000E+00  0.00000000E+00  0.00000000E+00
  0.00000000E+00  0.00000000E+00  0.00000000E+00
  0.00000000E+00  0.00000000E+00  0.00000000E+00
  0.00000000E+00  0.00000000E+00  0.00000000E+00
  0.00000000E+00  0.00000000E+00  0.00000000E+00
  0.00000000E+00  0.00000000E+00  0.00000000E+00
  0.00000000E+00  0.00000000E+00  0.00000000E+00
  0.00000000E+00  0.00000000E+00  0.00000000E+00
  0.00000000E+00  0.00000000E+00  0.00000000E+00
  0.00000000E+00  0.00000000E+00  0.00000000E+00
  0.00000000E+00  0.00000000E+00  0.00000000E+00
  0.00000000E+00  0.00000000E+00  0.00000000E+00
  0.00000000E+00  0.00000000E+00  0.00000000E+00
  0.00000000E+00  0.00000000E+00  0.00000000E+00
  0.00000000E+00  0.00000000E+00  0.00000000E+00
  0.00000000E+00  0.00000000E+00  0.00000000E+00
  0.00000000E+00  0.00000000E+00  0.00000000E+00
  0.00000000E+00  0.00000000E+00  0.00000000E+00
  0.00000000E+00  0.00000000E+00  0.00000000E+00
  0.00000000E+00  0.00000000E+00  0.00000000E+00
  0.00000000E+00  0.00000000E+00  0.00000000E+00
  0.00000000E+00  0.00000000E+00  0.00000000E+00
  0.00000000E+00  0.00000000E+00  0.00000000E+00
  0.00000000E+00  0.00000000E+00  0.00000000E+00
  0.00000000E+00  0.00000000E+00  0.00000000E+00
  0.00000000E+00  0.00000000E+00  0.00000000E+00
