Si8                                     
   1.00000014768065     
    10.7984570000000009    0.0797920000000000    0.0000000000000000
     0.0797920000000000   10.6388739999999995    0.0000000000000000
     0.0000000000000000    0.0000000000000000   10.6388739999999995
   Si
    64
Direct
  0.0000000000000000  0.0000000000000000  0.0005916306454450
  0.0000000000000000  0.0000000000000000  0.5005916306454451
  0.0000000000000000  0.5000000000000000  0.0005916306454450
  0.0000000000000000  0.5000000000000000  0.5005916306454451
  0.5000000000000000  0.0000000000000000  0.0005916306454450
  0.5000000000000000  0.0000000000000000  0.5005916306454451
  0.5000000000000000  0.5000000000000000  0.0005916306454450
  0.5000000000000000  0.5000000000000000  0.5005916306454451
  0.3750000000000000  0.3750000000000000  0.1244083693545550
  0.3750000000000000  0.3750000000000000  0.6244083693545549
  0.3750000000000000  0.8750000000000000  0.1244083693545550
  0.3750000000000000  0.8750000000000000  0.6244083693545549
  0.8750000000000000  0.3750000000000000  0.1244083693545550
  0.8750000000000000  0.3750000000000000  0.6244083693545549
  0.8750000000000000  0.8750000000000000  0.1244083693545550
  0.8750000000000000  0.8750000000000000  0.6244083693545549
  0.0000000000000000  0.2500000000000000  0.2505916306454450
  0.0000000000000000  0.2500000000000000  0.7505916306454451
  0.0000000000000000  0.7500000000000000  0.2505916306454450
  0.0000000000000000  0.7500000000000000  0.7505916306454451
  0.5000000000000000  0.2500000000000000  0.2505916306454450
  0.5000000000000000  0.2500000000000000  0.7505916306454451
  0.5000000000000000  0.7500000000000000  0.2505916306454450
  0.5000000000000000  0.7500000000000000  0.7505916306454451
  0.3750000000000000  0.1250000000000000  0.3744083693545550
  0.3750000000000000  0.1250000000000000  0.8744083693545549
  0.3750000000000000  0.6250000000000000  0.3744083693545550
  0.3750000000000000  0.6250000000000000  0.8744083693545549
  0.8750000000000000  0.1250000000000000  0.3744083693545550
  0.8750000000000000  0.1250000000000000  0.8744083693545549
  0.8750000000000000  0.6250000000000000  0.3744083693545550
  0.8750000000000000  0.6250000000000000  0.8744083693545549
  0.2500000000000000  0.0000000000000000  0.2505916306454450
  0.2500000000000000  0.0000000000000000  0.7505916306454451
  0.2500000000000000  0.5000000000000000  0.2505916306454450
  0.2500000000000000  0.5000000000000000  0.7505916306454451
  0.7500000000000000  0.0000000000000000  0.2505916306454450
  0.7500000000000000  0.0000000000000000  0.7505916306454451
  0.7500000000000000  0.5000000000000000  0.2505916306454450
  0.7500000000000000  0.5000000000000000  0.7505916306454451
  0.1250000000000000  0.3750000000000000  0.3744083693545550
  0.1250000000000000  0.3750000000000000  0.8744083693545549
  0.1250000000000000  0.8750000000000000  0.3744083693545550
  0.1250000000000000  0.8750000000000000  0.8744083693545549
  0.6250000000000000  0.3750000000000000  0.3744083693545550
  0.6250000000000000  0.3750000000000000  0.8744083693545549
  0.6250000000000000  0.8750000000000000  0.3744083693545550
  0.6250000000000000  0.8750000000000000  0.8744083693545549
  0.2500000000000000  0.2500000000000000  0.0005916306454450
  0.2500000000000000  0.2500000000000000  0.5005916306454451
  0.2500000000000000  0.7500000000000000  0.0005916306454450
  0.2500000000000000  0.7500000000000000  0.5005916306454451
  0.7500000000000000  0.2500000000000000  0.0005916306454450
  0.7500000000000000  0.2500000000000000  0.5005916306454451
  0.7500000000000000  0.7500000000000000  0.0005916306454450
  0.7500000000000000  0.7500000000000000  0.5005916306454451
  0.1250000000000000  0.1250000000000000  0.1244083693545550
  0.1250000000000000  0.1250000000000000  0.6244083693545549
  0.1250000000000000  0.6250000000000000  0.1244083693545550
  0.1250000000000000  0.6250000000000000  0.6244083693545549
  0.6250000000000000  0.1250000000000000  0.1244083693545550
  0.6250000000000000  0.1250000000000000  0.6244083693545549
  0.6250000000000000  0.6250000000000000  0.1244083693545550
  0.6250000000000000  0.6250000000000000  0.6244083693545549
 
  0.00000000E+00  0.00000000E+00  0.00000000E+00
  0.00000000E+00  0.00000000E+00  0.00000000E+00
  0.00000000E+00  0.00000000E+00  0.00000000E+00
  0.00000000E+00  0.00000000E+00  0.00000000E+00
  0.00000000E+00  0.00000000E+00  0.00000000E+00
  0.00000000E+00  0.00000000E+00  0.00000000E+00
  0.00000000E+00  0.00000000E+00  0.00000000E+00
  0.00000000E+00  0.00000000E+00  0.00000000E+00
  0.00000000E+00  0.00000000E+00  0.00000000E+00
  0.00000000E+00  0.00000000E+00  0.00000000E+00
  0.00000000E+00  0.00000000E+00  0.00000000E+00
  0.00000000E+00  0.00000000E+00  0.00000000E+00
  0.00000000E+00  0.00000000E+00  0.00000000E+00
  0.00000000E+00  0.00000000E+00  0.00000000E+00
  0.00000000E+00  0.00000000E+00  0.00000000E+00
  0.00000000E+00  0.00000000E+00  0.00000000E+00
  0.00000000E+00  0.00000000E+00  0.00000000E+00
  0.00000000E+00  0.00000000E+00  0.00000000E+00
  0.00000000E+00  0.00000000E+00  0.00000000E+00
  0.00000000E+00  0.00000000E+00  0.00000000E+00
  0.00000000E+00  0.00000000E+00  0.00000000E+00
  0.00000000E+00  0.00000000E+00  0.00000000E+00
  0.00000000E+00  0.00000000E+00  0.00000000E+00
  0.00000000E+00  0.00000000E+00  0.00000000E+00
  0.00000000E+00  0.00000000E+00  0.00000000E+00
  0.00000000E+00  0.00000000E+00  0.00000000E+00
  0.00000000E+00  0.00000000E+00  0.00000000E+00
  0.00000000E+00  0.00000000E+00  0.00000000E+00
  0.00000000E+00  0.00000000E+00  0.00000000E+00
  0.00000000E+00  0.00000000E+00  0.00000000E+00
  0.00000000E+00  0.00000000E+00  0.00000000E+00
  0.00000000E+00  0.00000000E+00  0.00000000E+00
  0.00000000E+00  0.00000000E+00  0.00000000E+00
  0.00000000E+00  0.00000000E+00  0.00000000E+00
  0.00000000E+00  0.00000000E+00  0.00000000E+00
  0.00000000E+00  0.00000000E+00  0.00000000E+00
  0.00000000E+00  0.00000000E+00  0.00000000E+00
  0.00000000E+00  0.00000000E+00  0.00000000E+00
  0.00000000E+00  0.00000000E+00  0.00000000E+00
  0.00000000E+00  0.00000000E+00  0.00000000E+00
  0.00000000E+00  0.00000000E+00  0.00000000E+00
  0.00000000E+00  0.00000000E+00  0.00000000E+00
  0.00000000E+00  0.00000000E+00  0.00000000E+00
  0.00000000E+00  0.00000000E+00  0.00000000E+00
  0.00000000E+00  0.00000000E+00  0.00000000E+00
  0.00000000E+00  0.00000000E+00  0.00000000E+00
  0.00000000E+00  0.00000000E+00  0.00000000E+00
  0.00000000E+00  0.00000000E+00  0.00000000E+00
  0.00000000E+00  0.00000000E+00  0.00000000E+00
  0.00000000E+00  0.00000000E+00  0.00000000E+00
  0.00000000E+00  0.00000000E+00  0.00000000E+00
  0.00000000E+00  0.00000000E+00  0.00000000E+00
  0.00000000E+00  0.00000000E+00  0.00000000E+00
  0.00000000E+00  0.00000000E+00  0.00000000E+00
  0.00000000E+00  0.00000000E+00  0.00000000E+00
  0.00000000E+00  0.00000000E+00  0.00000000E+00
  0.00000000E+00  0.00000000E+00  0.00000000E+00
  0.00000000E+00  0.00000000E+00  0.00000000E+00
  0.00000000E+00  0.00000000E+00  0.00000000E+00
  0.00000000E+00  0.00000000E+00  0.00000000E+00
  0.00000000E+00  0.00000000E+00  0.00000000E+00
  0.00000000E+00  0.00000000E+00  0.00000000E+00
  0.00000000E+00  0.00000000E+00  0.00000000E+00
  0.00000000E+00  0.00000000E+00  0.00000000E+00
