Si8                                     
   1.00000014768065     
    10.5570219999999999   -0.0265250000000000    0.0000000000000000
    -0.0265250000000000   10.6100720000000006    0.0000000000000000
     0.0000000000000000    0.0000000000000000   10.6100720000000006
   Si
    64
Direct
  0.0000000000000000  0.0000000000000000  0.9997923227958859
  0.0000000000000000  0.0000000000000000  0.4997923227958860
  0.0000000000000000  0.5000000000000000  0.9997923227958859
  0.0000000000000000  0.5000000000000000  0.4997923227958860
  0.5000000000000000  0.0000000000000000  0.9997923227958859
  0.5000000000000000  0.0000000000000000  0.4997923227958860
  0.5000000000000000  0.5000000000000000  0.9997923227958859
  0.5000000000000000  0.5000000000000000  0.4997923227958860
  0.3750000000000000  0.3750000000000000  0.1252076772041140
  0.3750000000000000  0.3750000000000000  0.6252076772041141
  0.3750000000000000  0.8750000000000000  0.1252076772041140
  0.3750000000000000  0.8750000000000000  0.6252076772041141
  0.8750000000000000  0.3750000000000000  0.1252076772041140
  0.8750000000000000  0.3750000000000000  0.6252076772041141
  0.8750000000000000  0.8750000000000000  0.1252076772041140
  0.8750000000000000  0.8750000000000000  0.6252076772041141
  0.0000000000000000  0.2500000000000000  0.2497923227958860
  0.0000000000000000  0.2500000000000000  0.7497923227958859
  0.0000000000000000  0.7500000000000000  0.2497923227958860
  0.0000000000000000  0.7500000000000000  0.7497923227958859
  0.5000000000000000  0.2500000000000000  0.2497923227958860
  0.5000000000000000  0.2500000000000000  0.7497923227958859
  0.5000000000000000  0.7500000000000000  0.2497923227958860
  0.5000000000000000  0.7500000000000000  0.7497923227958859
  0.3750000000000000  0.1250000000000000  0.3752076772041140
  0.3750000000000000  0.1250000000000000  0.8752076772041141
  0.3750000000000000  0.6250000000000000  0.3752076772041140
  0.3750000000000000  0.6250000000000000  0.8752076772041141
  0.8750000000000000  0.1250000000000000  0.3752076772041140
  0.8750000000000000  0.1250000000000000  0.8752076772041141
  0.8750000000000000  0.6250000000000000  0.3752076772041140
  0.8750000000000000  0.6250000000000000  0.8752076772041141
  0.2500000000000000  0.0000000000000000  0.2497923227958860
  0.2500000000000000  0.0000000000000000  0.7497923227958859
  0.2500000000000000  0.5000000000000000  0.2497923227958860
  0.2500000000000000  0.5000000000000000  0.7497923227958859
  0.7500000000000000  0.0000000000000000  0.2497923227958860
  0.7500000000000000  0.0000000000000000  0.7497923227958859
  0.7500000000000000  0.5000000000000000  0.2497923227958860
  0.7500000000000000  0.5000000000000000  0.7497923227958859
  0.1250000000000000  0.3750000000000000  0.3752076772041140
  0.1250000000000000  0.3750000000000000  0.8752076772041141
  0.1250000000000000  0.8750000000000000  0.3752076772041140
  0.1250000000000000  0.8750000000000000  0.8752076772041141
  0.6250000000000000  0.3750000000000000  0.3752076772041140
  0.6250000000000000  0.3750000000000000  0.8752076772041141
  0.6250000000000000  0.8750000000000000  0.3752076772041140
  0.6250000000000000  0.8750000000000000  0.8752076772041141
  0.2500000000000000  0.2500000000000000  0.9997923227958859
  0.2500000000000000  0.2500000000000000  0.4997923227958860
  0.2500000000000000  0.7500000000000000  0.9997923227958859
  0.2500000000000000  0.7500000000000000  0.4997923227958860
  0.7500000000000000  0.2500000000000000  0.9997923227958859
  0.7500000000000000  0.2500000000000000  0.4997923227958860
  0.7500000000000000  0.7500000000000000  0.9997923227958859
  0.7500000000000000  0.7500000000000000  0.4997923227958860
  0.1250000000000000  0.1250000000000000  0.1252076772041140
  0.1250000000000000  0.1250000000000000  0.6252076772041141
  0.1250000000000000  0.6250000000000000  0.1252076772041140
  0.1250000000000000  0.6250000000000000  0.6252076772041141
  0.6250000000000000  0.1250000000000000  0.1252076772041140
  0.6250000000000000  0.1250000000000000  0.6252076772041141
  0.6250000000000000  0.6250000000000000  0.1252076772041140
  0.6250000000000000  0.6250000000000000  0.6252076772041141
 
  0.00000000E+00  0.00000000E+00  0.00000000E+00
  0.00000000E+00  0.00000000E+00  0.00000000E+00
  0.00000000E+00  0.00000000E+00  0.00000000E+00
  0.00000000E+00  0.00000000E+00  0.00000000E+00
  0.00000000E+00  0.00000000E+00  0.00000000E+00
  0.00000000E+00  0.00000000E+00  0.00000000E+00
  0.00000000E+00  0.00000000E+00  0.00000000E+00
  0.00000000E+00  0.00000000E+00  0.00000000E+00
  0.00000000E+00  0.00000000E+00  0.00000000E+00
  0.00000000E+00  0.00000000E+00  0.00000000E+00
  0.00000000E+00  0.00000000E+00  0.00000000E+00
  0.00000000E+00  0.00000000E+00  0.00000000E+00
  0.00000000E+00  0.00000000E+00  0.00000000E+00
  0.00000000E+00  0.00000000E+00  0.00000000E+00
  0.00000000E+00  0.00000000E+00  0.00000000E+00
  0.00000000E+00  0.00000000E+00  0.00000000E+00
  0.00000000E+00  0.00000000E+00  0.00000000E+00
  0.00000000E+00  0.00000000E+00  0.00000000E+00
  0.00000000E+00  0.00000000E+00  0.00000000E+00
  0.00000000E+00  0.00000000E+00  0.00000000E+00
  0.00000000E+00  0.00000000E+00  0.00000000E+00
  0.00000000E+00  0.00000000E+00  0.00000000E+00
  0.00000000E+00  0.00000000E+00  0.00000000E+00
  0.00000000E+00  0.00000000E+00  0.00000000E+00
  0.00000000E+00  0.00000000E+00  0.00000000E+00
  0.00000000E+00  0.00000000E+00  0.00000000E+00
  0.00000000E+00  0.00000000E+00  0.00000000E+00
  0.00000000E+00  0.00000000E+00  0.00000000E+00
  0.00000000E+00  0.00000000E+00  0.00000000E+00
  0.00000000E+00  0.00000000E+00  0.00000000E+00
  0.00000000E+00  0.00000000E+00  0.00000000E+00
  0.00000000E+00  0.00000000E+00  0.00000000E+00
  0.00000000E+00  0.00000000E+00  0.00000000E+00
  0.00000000E+00  0.00000000E+00  0.00000000E+00
  0.00000000E+00  0.00000000E+00  0.00000000E+00
  0.00000000E+00  0.00000000E+00  0.00000000E+00
  0.00000000E+00  0.00000000E+00  0.00000000E+00
  0.00000000E+00  0.00000000E+00  0.00000000E+00
  0.00000000E+00  0.00000000E+00  0.00000000E+00
  0.00000000E+00  0.00000000E+00  0.00000000E+00
  0.00000000E+00  0.00000000E+00  0.00000000E+00
  0.00000000E+00  0.00000000E+00  0.00000000E+00
  0.00000000E+00  0.00000000E+00  0.00000000E+00
  0.00000000E+00  0.00000000E+00  0.00000000E+00
  0.00000000E+00  0.00000000E+00  0.00000000E+00
  0.00000000E+00  0.00000000E+00  0.00000000E+00
  0.00000000E+00  0.00000000E+00  0.00000000E+00
  0.00000000E+00  0.00000000E+00  0.00000000E+00
  0.00000000E+00  0.00000000E+00  0.00000000E+00
  0.00000000E+00  0.00000000E+00  0.00000000E+00
  0.00000000E+00  0.00000000E+00  0.00000000E+00
  0.00000000E+00  0.00000000E+00  0.00000000E+00
  0.00000000E+00  0.00000000E+00  0.00000000E+00
  0.00000000E+00  0.00000000E+00  0.00000000E+00
  0.00000000E+00  0.00000000E+00  0.00000000E+00
  0.00000000E+00  0.00000000E+00  0.00000000E+00
  0.00000000E+00  0.00000000E+00  0.00000000E+00
  0.00000000E+00  0.00000000E+00  0.00000000E+00
  0.00000000E+00  0.00000000E+00  0.00000000E+00
  0.00000000E+00  0.00000000E+00  0.00000000E+00
  0.00000000E+00  0.00000000E+00  0.00000000E+00
  0.00000000E+00  0.00000000E+00  0.00000000E+00
  0.00000000E+00  0.00000000E+00  0.00000000E+00
  0.00000000E+00  0.00000000E+00  0.00000000E+00
