Si8                                     
   1.00000014768065     
    10.7692230000000002    0.0795760000000000    0.0000000000000000
     0.0795760000000000   10.6100720000000006    0.0000000000000000
     0.0000000000000000    0.0000000000000000   10.6100720000000006
   Si
    64
Direct
  0.0000000000000000  0.0000000000000000  0.0006061679140839
  0.0000000000000000  0.0000000000000000  0.5006061679140839
  0.0000000000000000  0.5000000000000000  0.0006061679140839
  0.0000000000000000  0.5000000000000000  0.5006061679140839
  0.5000000000000000  0.0000000000000000  0.0006061679140839
  0.5000000000000000  0.0000000000000000  0.5006061679140839
  0.5000000000000000  0.5000000000000000  0.0006061679140839
  0.5000000000000000  0.5000000000000000  0.5006061679140839
  0.3750000000000000  0.3750000000000000  0.1243938320859161
  0.3750000000000000  0.3750000000000000  0.6243938320859161
  0.3750000000000000  0.8750000000000000  0.1243938320859161
  0.3750000000000000  0.8750000000000000  0.6243938320859161
  0.8750000000000000  0.3750000000000000  0.1243938320859161
  0.8750000000000000  0.3750000000000000  0.6243938320859161
  0.8750000000000000  0.8750000000000000  0.1243938320859161
  0.8750000000000000  0.8750000000000000  0.6243938320859161
  0.0000000000000000  0.2500000000000000  0.2506061679140839
  0.0000000000000000  0.2500000000000000  0.7506061679140839
  0.0000000000000000  0.7500000000000000  0.2506061679140839
  0.0000000000000000  0.7500000000000000  0.7506061679140839
  0.5000000000000000  0.2500000000000000  0.2506061679140839
  0.5000000000000000  0.2500000000000000  0.7506061679140839
  0.5000000000000000  0.7500000000000000  0.2506061679140839
  0.5000000000000000  0.7500000000000000  0.7506061679140839
  0.3750000000000000  0.1250000000000000  0.3743938320859161
  0.3750000000000000  0.1250000000000000  0.8743938320859161
  0.3750000000000000  0.6250000000000000  0.3743938320859161
  0.3750000000000000  0.6250000000000000  0.8743938320859161
  0.8750000000000000  0.1250000000000000  0.3743938320859161
  0.8750000000000000  0.1250000000000000  0.8743938320859161
  0.8750000000000000  0.6250000000000000  0.3743938320859161
  0.8750000000000000  0.6250000000000000  0.8743938320859161
  0.2500000000000000  0.0000000000000000  0.2506061679140839
  0.2500000000000000  0.0000000000000000  0.7506061679140839
  0.2500000000000000  0.5000000000000000  0.2506061679140839
  0.2500000000000000  0.5000000000000000  0.7506061679140839
  0.7500000000000000  0.0000000000000000  0.2506061679140839
  0.7500000000000000  0.0000000000000000  0.7506061679140839
  0.7500000000000000  0.5000000000000000  0.2506061679140839
  0.7500000000000000  0.5000000000000000  0.7506061679140839
  0.1250000000000000  0.3750000000000000  0.3743938320859161
  0.1250000000000000  0.3750000000000000  0.8743938320859161
  0.1250000000000000  0.8750000000000000  0.3743938320859161
  0.1250000000000000  0.8750000000000000  0.8743938320859161
  0.6250000000000000  0.3750000000000000  0.3743938320859161
  0.6250000000000000  0.3750000000000000  0.8743938320859161
  0.6250000000000000  0.8750000000000000  0.3743938320859161
  0.6250000000000000  0.8750000000000000  0.8743938320859161
  0.2500000000000000  0.2500000000000000  0.0006061679140839
  0.2500000000000000  0.2500000000000000  0.5006061679140839
  0.2500000000000000  0.7500000000000000  0.0006061679140839
  0.2500000000000000  0.7500000000000000  0.5006061679140839
  0.7500000000000000  0.2500000000000000  0.0006061679140839
  0.7500000000000000  0.2500000000000000  0.5006061679140839
  0.7500000000000000  0.7500000000000000  0.0006061679140839
  0.7500000000000000  0.7500000000000000  0.5006061679140839
  0.1250000000000000  0.1250000000000000  0.1243938320859161
  0.1250000000000000  0.1250000000000000  0.6243938320859161
  0.1250000000000000  0.6250000000000000  0.1243938320859161
  0.1250000000000000  0.6250000000000000  0.6243938320859161
  0.6250000000000000  0.1250000000000000  0.1243938320859161
  0.6250000000000000  0.1250000000000000  0.6243938320859161
  0.6250000000000000  0.6250000000000000  0.1243938320859161
  0.6250000000000000  0.6250000000000000  0.6243938320859161
 
  0.00000000E+00  0.00000000E+00  0.00000000E+00
  0.00000000E+00  0.00000000E+00  0.00000000E+00
  0.00000000E+00  0.00000000E+00  0.00000000E+00
  0.00000000E+00  0.00000000E+00  0.00000000E+00
  0.00000000E+00  0.00000000E+00  0.00000000E+00
  0.00000000E+00  0.00000000E+00  0.00000000E+00
  0.00000000E+00  0.00000000E+00  0.00000000E+00
  0.00000000E+00  0.00000000E+00  0.00000000E+00
  0.00000000E+00  0.00000000E+00  0.00000000E+00
  0.00000000E+00  0.00000000E+00  0.00000000E+00
  0.00000000E+00  0.00000000E+00  0.00000000E+00
  0.00000000E+00  0.00000000E+00  0.00000000E+00
  0.00000000E+00  0.00000000E+00  0.00000000E+00
  0.00000000E+00  0.00000000E+00  0.00000000E+00
  0.00000000E+00  0.00000000E+00  0.00000000E+00
  0.00000000E+00  0.00000000E+00  0.00000000E+00
  0.00000000E+00  0.00000000E+00  0.00000000E+00
  0.00000000E+00  0.00000000E+00  0.00000000E+00
  0.00000000E+00  0.00000000E+00  0.00000000E+00
  0.00000000E+00  0.00000000E+00  0.00000000E+00
  0.00000000E+00  0.00000000E+00  0.00000000E+00
  0.00000000E+00  0.00000000E+00  0.00000000E+00
  0.00000000E+00  0.00000000E+00  0.00000000E+00
  0.00000000E+00  0.00000000E+00  0.00000000E+00
  0.00000000E+00  0.00000000E+00  0.00000000E+00
  0.00000000E+00  0.00000000E+00  0.00000000E+00
  0.00000000E+00  0.00000000E+00  0.00000000E+00
  0.00000000E+00  0.00000000E+00  0.00000000E+00
  0.00000000E+00  0.00000000E+00  0.00000000E+00
  0.00000000E+00  0.00000000E+00  0.00000000E+00
  0.00000000E+00  0.00000000E+00  0.00000000E+00
  0.00000000E+00  0.00000000E+00  0.00000000E+00
  0.00000000E+00  0.00000000E+00  0.00000000E+00
  0.00000000E+00  0.00000000E+00  0.00000000E+00
  0.00000000E+00  0.00000000E+00  0.00000000E+00
  0.00000000E+00  0.00000000E+00  0.00000000E+00
  0.00000000E+00  0.00000000E+00  0.00000000E+00
  0.00000000E+00  0.00000000E+00  0.00000000E+00
  0.00000000E+00  0.00000000E+00  0.00000000E+00
  0.00000000E+00  0.00000000E+00  0.00000000E+00
  0.00000000E+00  0.00000000E+00  0.00000000E+00
  0.00000000E+00  0.00000000E+00  0.00000000E+00
  0.00000000E+00  0.00000000E+00  0.00000000E+00
  0.00000000E+00  0.00000000E+00  0.00000000E+00
  0.00000000E+00  0.00000000E+00  0.00000000E+00
  0.00000000E+00  0.00000000E+00  0.00000000E+00
  0.00000000E+00  0.00000000E+00  0.00000000E+00
  0.00000000E+00  0.00000000E+00  0.00000000E+00
  0.00000000E+00  0.00000000E+00  0.00000000E+00
  0.00000000E+00  0.00000000E+00  0.00000000E+00
  0.00000000E+00  0.00000000E+00  0.00000000E+00
  0.00000000E+00  0.00000000E+00  0.00000000E+00
  0.00000000E+00  0.00000000E+00  0.00000000E+00
  0.00000000E+00  0.00000000E+00  0.00000000E+00
  0.00000000E+00  0.00000000E+00  0.00000000E+00
  0.00000000E+00  0.00000000E+00  0.00000000E+00
  0.00000000E+00  0.00000000E+00  0.00000000E+00
  0.00000000E+00  0.00000000E+00  0.00000000E+00
  0.00000000E+00  0.00000000E+00  0.00000000E+00
  0.00000000E+00  0.00000000E+00  0.00000000E+00
  0.00000000E+00  0.00000000E+00  0.00000000E+00
  0.00000000E+00  0.00000000E+00  0.00000000E+00
  0.00000000E+00  0.00000000E+00  0.00000000E+00
  0.00000000E+00  0.00000000E+00  0.00000000E+00
