Si8                                     
   1.00000014768065     
    10.3721350000000001   -0.1058380000000000    0.0000000000000000
    -0.1058380000000000   10.5838120000000000    0.0000000000000000
     0.0000000000000000    0.0000000000000000   10.5838120000000000
   Si
    64
Direct
  0.0000000000000000  0.0000000000000000  0.9990836563761227
  0.0000000000000000  0.0000000000000000  0.4990836563761228
  0.0000000000000000  0.5000000000000000  0.9990836563761227
  0.0000000000000000  0.5000000000000000  0.4990836563761228
  0.5000000000000000  0.0000000000000000  0.9990836563761227
  0.5000000000000000  0.0000000000000000  0.4990836563761228
  0.5000000000000000  0.5000000000000000  0.9990836563761227
  0.5000000000000000  0.5000000000000000  0.4990836563761228
  0.3750000000000000  0.3750000000000000  0.1259163436238772
  0.3750000000000000  0.3750000000000000  0.6259163436238773
  0.3750000000000000  0.8750000000000000  0.1259163436238772
  0.3750000000000000  0.8750000000000000  0.6259163436238773
  0.8750000000000000  0.3750000000000000  0.1259163436238772
  0.8750000000000000  0.3750000000000000  0.6259163436238773
  0.8750000000000000  0.8750000000000000  0.1259163436238772
  0.8750000000000000  0.8750000000000000  0.6259163436238773
  0.0000000000000000  0.2500000000000000  0.2490836563761228
  0.0000000000000000  0.2500000000000000  0.7490836563761227
  0.0000000000000000  0.7500000000000000  0.2490836563761228
  0.0000000000000000  0.7500000000000000  0.7490836563761227
  0.5000000000000000  0.2500000000000000  0.2490836563761228
  0.5000000000000000  0.2500000000000000  0.7490836563761227
  0.5000000000000000  0.7500000000000000  0.2490836563761228
  0.5000000000000000  0.7500000000000000  0.7490836563761227
  0.3750000000000000  0.1250000000000000  0.3759163436238772
  0.3750000000000000  0.1250000000000000  0.8759163436238773
  0.3750000000000000  0.6250000000000000  0.3759163436238772
  0.3750000000000000  0.6250000000000000  0.8759163436238773
  0.8750000000000000  0.1250000000000000  0.3759163436238772
  0.8750000000000000  0.1250000000000000  0.8759163436238773
  0.8750000000000000  0.6250000000000000  0.3759163436238772
  0.8750000000000000  0.6250000000000000  0.8759163436238773
  0.2500000000000000  0.0000000000000000  0.2490836563761228
  0.2500000000000000  0.0000000000000000  0.7490836563761227
  0.2500000000000000  0.5000000000000000  0.2490836563761228
  0.2500000000000000  0.5000000000000000  0.7490836563761227
  0.7500000000000000  0.0000000000000000  0.2490836563761228
  0.7500000000000000  0.0000000000000000  0.7490836563761227
  0.7500000000000000  0.5000000000000000  0.2490836563761228
  0.7500000000000000  0.5000000000000000  0.7490836563761227
  0.1250000000000000  0.3750000000000000  0.3759163436238772
  0.1250000000000000  0.3750000000000000  0.8759163436238773
  0.1250000000000000  0.8750000000000000  0.3759163436238772
  0.1250000000000000  0.8750000000000000  0.8759163436238773
  0.6250000000000000  0.3750000000000000  0.3759163436238772
  0.6250000000000000  0.3750000000000000  0.8759163436238773
  0.6250000000000000  0.8750000000000000  0.3759163436238772
  0.6250000000000000  0.8750000000000000  0.8759163436238773
  0.2500000000000000  0.2500000000000000  0.9990836563761227
  0.2500000000000000  0.2500000000000000  0.4990836563761228
  0.2500000000000000  0.7500000000000000  0.9990836563761227
  0.2500000000000000  0.7500000000000000  0.4990836563761228
  0.7500000000000000  0.2500000000000000  0.9990836563761227
  0.7500000000000000  0.2500000000000000  0.4990836563761228
  0.7500000000000000  0.7500000000000000  0.9990836563761227
  0.7500000000000000  0.7500000000000000  0.4990836563761228
  0.1250000000000000  0.1250000000000000  0.1259163436238772
  0.1250000000000000  0.1250000000000000  0.6259163436238773
  0.1250000000000000  0.6250000000000000  0.1259163436238772
  0.1250000000000000  0.6250000000000000  0.6259163436238773
  0.6250000000000000  0.1250000000000000  0.1259163436238772
  0.6250000000000000  0.1250000000000000  0.6259163436238773
  0.6250000000000000  0.6250000000000000  0.1259163436238772
  0.6250000000000000  0.6250000000000000  0.6259163436238773
 
  0.00000000E+00  0.00000000E+00  0.00000000E+00
  0.00000000E+00  0.00000000E+00  0.00000000E+00
  0.00000000E+00  0.00000000E+00  0.00000000E+00
  0.00000000E+00  0.00000000E+00  0.00000000E+00
  0.00000000E+00  0.00000000E+00  0.00000000E+00
  0.00000000E+00  0.00000000E+00  0.00000000E+00
  0.00000000E+00  0.00000000E+00  0.00000000E+00
  0.00000000E+00  0.00000000E+00  0.00000000E+00
  0.00000000E+00  0.00000000E+00  0.00000000E+00
  0.00000000E+00  0.00000000E+00  0.00000000E+00
  0.00000000E+00  0.00000000E+00  0.00000000E+00
  0.00000000E+00  0.00000000E+00  0.00000000E+00
  0.00000000E+00  0.00000000E+00  0.00000000E+00
  0.00000000E+00  0.00000000E+00  0.00000000E+00
  0.00000000E+00  0.00000000E+00  0.00000000E+00
  0.00000000E+00  0.00000000E+00  0.00000000E+00
  0.00000000E+00  0.00000000E+00  0.00000000E+00
  0.00000000E+00  0.00000000E+00  0.00000000E+00
  0.00000000E+00  0.00000000E+00  0.00000000E+00
  0.00000000E+00  0.00000000E+00  0.00000000E+00
  0.00000000E+00  0.00000000E+00  0.00000000E+00
  0.00000000E+00  0.00000000E+00  0.00000000E+00
  0.00000000E+00  0.00000000E+00  0.00000000E+00
  0.00000000E+00  0.00000000E+00  0.00000000E+00
  0.00000000E+00  0.00000000E+00  0.00000000E+00
  0.00000000E+00  0.00000000E+00  0.00000000E+00
  0.00000000E+00  0.00000000E+00  0.00000000E+00
  0.00000000E+00  0.00000000E+00  0.00000000E+00
  0.00000000E+00  0.00000000E+00  0.00000000E+00
  0.00000000E+00  0.00000000E+00  0.00000000E+00
  0.00000000E+00  0.00000000E+00  0.00000000E+00
  0.00000000E+00  0.00000000E+00  0.00000000E+00
  0.00000000E+00  0.00000000E+00  0.00000000E+00
  0.00000000E+00  0.00000000E+00  0.00000000E+00
  0.00000000E+00  0.00000000E+00  0.00000000E+00
  0.00000000E+00  0.00000000E+00  0.00000000E+00
  0.00000000E+00  0.00000000E+00  0.00000000E+00
  0.00000000E+00  0.00000000E+00  0.00000000E+00
  0.00000000E+00  0.00000000E+00  0.00000000E+00
  0.00000000E+00  0.00000000E+00  0.00000000E+00
  0.00000000E+00  0.00000000E+00  0.00000000E+00
  0.00000000E+00  0.00000000E+00  0.00000000E+00
  0.00000000E+00  0.00000000E+00  0.00000000E+00
  0.00000000E+00  0.00000000E+00  0.00000000E+00
  0.00000000E+00  0.00000000E+00  0.00000000E+00
  0.00000000E+00  0.00000000E+00  0.00000000E+00
  0.00000000E+00  0.00000000E+00  0.00000000E+00
  0.00000000E+00  0.00000000E+00  0.00000000E+00
  0.00000000E+00  0.00000000E+00  0.00000000E+00
  0.00000000E+00  0.00000000E+00  0.00000000E+00
  0.00000000E+00  0.00000000E+00  0.00000000E+00
  0.00000000E+00  0.00000000E+00  0.00000000E+00
  0.00000000E+00  0.00000000E+00  0.00000000E+00
  0.00000000E+00  0.00000000E+00  0.00000000E+00
  0.00000000E+00  0.00000000E+00  0.00000000E+00
  0.00000000E+00  0.00000000E+00  0.00000000E+00
  0.00000000E+00  0.00000000E+00  0.00000000E+00
  0.00000000E+00  0.00000000E+00  0.00000000E+00
  0.00000000E+00  0.00000000E+00  0.00000000E+00
  0.00000000E+00  0.00000000E+00  0.00000000E+00
  0.00000000E+00  0.00000000E+00  0.00000000E+00
  0.00000000E+00  0.00000000E+00  0.00000000E+00
  0.00000000E+00  0.00000000E+00  0.00000000E+00
  0.00000000E+00  0.00000000E+00  0.00000000E+00
