Si8                                     
   1.00000014768065     
    10.4509209999999992   -0.0795760000000000    0.0000000000000000
    -0.0795760000000000   10.6100720000000006    0.0000000000000000
     0.0000000000000000    0.0000000000000000   10.6100720000000006
   Si
    64
Direct
  0.0000000000000000  0.0000000000000000  0.9993415133377976
  0.0000000000000000  0.0000000000000000  0.4993415133377976
  0.0000000000000000  0.5000000000000000  0.9993415133377976
  0.0000000000000000  0.5000000000000000  0.4993415133377976
  0.5000000000000000  0.0000000000000000  0.9993415133377976
  0.5000000000000000  0.0000000000000000  0.4993415133377976
  0.5000000000000000  0.5000000000000000  0.9993415133377976
  0.5000000000000000  0.5000000000000000  0.4993415133377976
  0.3750000000000000  0.3750000000000000  0.1256584866622024
  0.3750000000000000  0.3750000000000000  0.6256584866622024
  0.3750000000000000  0.8750000000000000  0.1256584866622024
  0.3750000000000000  0.8750000000000000  0.6256584866622024
  0.8750000000000000  0.3750000000000000  0.1256584866622024
  0.8750000000000000  0.3750000000000000  0.6256584866622024
  0.8750000000000000  0.8750000000000000  0.1256584866622024
  0.8750000000000000  0.8750000000000000  0.6256584866622024
  0.0000000000000000  0.2500000000000000  0.2493415133377976
  0.0000000000000000  0.2500000000000000  0.7493415133377976
  0.0000000000000000  0.7500000000000000  0.2493415133377976
  0.0000000000000000  0.7500000000000000  0.7493415133377976
  0.5000000000000000  0.2500000000000000  0.2493415133377976
  0.5000000000000000  0.2500000000000000  0.7493415133377976
  0.5000000000000000  0.7500000000000000  0.2493415133377976
  0.5000000000000000  0.7500000000000000  0.7493415133377976
  0.3750000000000000  0.1250000000000000  0.3756584866622024
  0.3750000000000000  0.1250000000000000  0.8756584866622024
  0.3750000000000000  0.6250000000000000  0.3756584866622024
  0.3750000000000000  0.6250000000000000  0.8756584866622024
  0.8750000000000000  0.1250000000000000  0.3756584866622024
  0.8750000000000000  0.1250000000000000  0.8756584866622024
  0.8750000000000000  0.6250000000000000  0.3756584866622024
  0.8750000000000000  0.6250000000000000  0.8756584866622024
  0.2500000000000000  0.0000000000000000  0.2493415133377976
  0.2500000000000000  0.0000000000000000  0.7493415133377976
  0.2500000000000000  0.5000000000000000  0.2493415133377976
  0.2500000000000000  0.5000000000000000  0.7493415133377976
  0.7500000000000000  0.0000000000000000  0.2493415133377976
  0.7500000000000000  0.0000000000000000  0.7493415133377976
  0.7500000000000000  0.5000000000000000  0.2493415133377976
  0.7500000000000000  0.5000000000000000  0.7493415133377976
  0.1250000000000000  0.3750000000000000  0.3756584866622024
  0.1250000000000000  0.3750000000000000  0.8756584866622024
  0.1250000000000000  0.8750000000000000  0.3756584866622024
  0.1250000000000000  0.8750000000000000  0.8756584866622024
  0.6250000000000000  0.3750000000000000  0.3756584866622024
  0.6250000000000000  0.3750000000000000  0.8756584866622024
  0.6250000000000000  0.8750000000000000  0.3756584866622024
  0.6250000000000000  0.8750000000000000  0.8756584866622024
  0.2500000000000000  0.2500000000000000  0.9993415133377976
  0.2500000000000000  0.2500000000000000  0.4993415133377976
  0.2500000000000000  0.7500000000000000  0.9993415133377976
  0.2500000000000000  0.7500000000000000  0.4993415133377976
  0.7500000000000000  0.2500000000000000  0.9993415133377976
  0.7500000000000000  0.2500000000000000  0.4993415133377976
  0.7500000000000000  0.7500000000000000  0.9993415133377976
  0.7500000000000000  0.7500000000000000  0.4993415133377976
  0.1250000000000000  0.1250000000000000  0.1256584866622024
  0.1250000000000000  0.1250000000000000  0.6256584866622024
  0.1250000000000000  0.6250000000000000  0.1256584866622024
  0.1250000000000000  0.6250000000000000  0.6256584866622024
  0.6250000000000000  0.1250000000000000  0.1256584866622024
  0.6250000000000000  0.1250000000000000  0.6256584866622024
  0.6250000000000000  0.6250000000000000  0.1256584866622024
  0.6250000000000000  0.6250000000000000  0.6256584866622024
 
  0.00000000E+00  0.00000000E+00  0.00000000E+00
  0.00000000E+00  0.00000000E+00  0.00000000E+00
  0.00000000E+00  0.00000000E+00  0.00000000E+00
  0.00000000E+00  0.00000000E+00  0.00000000E+00
  0.00000000E+00  0.00000000E+00  0.00000000E+00
  0.00000000E+00  0.00000000E+00  0.00000000E+00
  0.00000000E+00  0.00000000E+00  0.00000000E+00
  0.00000000E+00  0.00000000E+00  0.00000000E+00
  0.00000000E+00  0.00000000E+00  0.00000000E+00
  0.00000000E+00  0.00000000E+00  0.00000000E+00
  0.00000000E+00  0.00000000E+00  0.00000000E+00
  0.00000000E+00  0.00000000E+00  0.00000000E+00
  0.00000000E+00  0.00000000E+00  0.00000000E+00
  0.00000000E+00  0.00000000E+00  0.00000000E+00
  0.00000000E+00  0.00000000E+00  0.00000000E+00
  0.00000000E+00  0.00000000E+00  0.00000000E+00
  0.00000000E+00  0.00000000E+00  0.00000000E+00
  0.00000000E+00  0.00000000E+00  0.00000000E+00
  0.00000000E+00  0.00000000E+00  0.00000000E+00
  0.00000000E+00  0.00000000E+00  0.00000000E+00
  0.00000000E+00  0.00000000E+00  0.00000000E+00
  0.00000000E+00  0.00000000E+00  0.00000000E+00
  0.00000000E+00  0.00000000E+00  0.00000000E+00
  0.00000000E+00  0.00000000E+00  0.00000000E+00
  0.00000000E+00  0.00000000E+00  0.00000000E+00
  0.00000000E+00  0.00000000E+00  0.00000000E+00
  0.00000000E+00  0.00000000E+00  0.00000000E+00
  0.00000000E+00  0.00000000E+00  0.00000000E+00
  0.00000000E+00  0.00000000E+00  0.00000000E+00
  0.00000000E+00  0.00000000E+00  0.00000000E+00
  0.00000000E+00  0.00000000E+00  0.00000000E+00
  0.00000000E+00  0.00000000E+00  0.00000000E+00
  0.00000000E+00  0.00000000E+00  0.00000000E+00
  0.00000000E+00  0.00000000E+00  0.00000000E+00
  0.00000000E+00  0.00000000E+00  0.00000000E+00
  0.00000000E+00  0.00000000E+00  0.00000000E+00
  0.00000000E+00  0.00000000E+00  0.00000000E+00
  0.00000000E+00  0.00000000E+00  0.00000000E+00
  0.00000000E+00  0.00000000E+00  0.00000000E+00
  0.00000000E+00  0.00000000E+00  0.00000000E+00
  0.00000000E+00  0.00000000E+00  0.00000000E+00
  0.00000000E+00  0.00000000E+00  0.00000000E+00
  0.00000000E+00  0.00000000E+00  0.00000000E+00
  0.00000000E+00  0.00000000E+00  0.00000000E+00
  0.00000000E+00  0.00000000E+00  0.00000000E+00
  0.00000000E+00  0.00000000E+00  0.00000000E+00
  0.00000000E+00  0.00000000E+00  0.00000000E+00
  0.00000000E+00  0.00000000E+00  0.00000000E+00
  0.00000000E+00  0.00000000E+00  0.00000000E+00
  0.00000000E+00  0.00000000E+00  0.00000000E+00
  0.00000000E+00  0.00000000E+00  0.00000000E+00
  0.00000000E+00  0.00000000E+00  0.00000000E+00
  0.00000000E+00  0.00000000E+00  0.00000000E+00
  0.00000000E+00  0.00000000E+00  0.00000000E+00
  0.00000000E+00  0.00000000E+00  0.00000000E+00
  0.00000000E+00  0.00000000E+00  0.00000000E+00
  0.00000000E+00  0.00000000E+00  0.00000000E+00
  0.00000000E+00  0.00000000E+00  0.00000000E+00
  0.00000000E+00  0.00000000E+00  0.00000000E+00
  0.00000000E+00  0.00000000E+00  0.00000000E+00
  0.00000000E+00  0.00000000E+00  0.00000000E+00
  0.00000000E+00  0.00000000E+00  0.00000000E+00
  0.00000000E+00  0.00000000E+00  0.00000000E+00
  0.00000000E+00  0.00000000E+00  0.00000000E+00
