# INCAR for relax2
# Global parameters
SYSTEM = Si64
ISTART = 0
ICHARG = 2
LREAL = Auto
PREC = Accurate
LWAVE = .False.
LCHARG = .False.
ADDGRID = .True.
ENCUT = 400
GGA = PS
GGA_COMPAT = .FALSE.
#METAGGA = SCAN
# Electronic parameters
ISMEAR = 1
SIGMA = 0.2
NELM = 60
NELMIN = 8
# Ionic parameters
EDIFF = 1e-06
EDIFFG = -0.01
NSW = 60
IBRION = 2
ISIF = 2
# other parameters
KPAR = 4
NPAR = 2
ALGO = Fast
