# INCAR for relax2
# Global parameters
SYSTEM = C8
ISTART = 0
ICHARG = 2
LREAL = Auto
PREC = Normal
LWAVE = .False.
LCHARG = .False.
ADDGRID = .True.
ENCUT = 520
# Electronic parameters
ISMEAR = 1
SIGMA = 0.2
NELM = 60
NELMIN = 8
# Ionic parameters
EDIFF = 1e-06
EDIFFG = -0.01
NSW = 60
IBRION = 2
ISIF = 2
# other parameters
KPAR = 8
ALGO = Fast
