Si8                                     
   1.00000014768065     
    10.5822979999999998   -0.1079830000000000    0.0000000000000000
    -0.1079830000000000   10.7982630000000004    0.0000000000000000
     0.0000000000000000    0.0000000000000000   10.7982630000000004
   Si
    64
Direct
  0.0000000000000000  0.0000000000000000  0.9992349046969307
  0.0000000000000000  0.0000000000000000  0.4992349046969307
  0.0000000000000000  0.5000000000000000  0.9992349046969307
  0.0000000000000000  0.5000000000000000  0.4992349046969307
  0.5000000000000000  0.0000000000000000  0.9992349046969307
  0.5000000000000000  0.0000000000000000  0.4992349046969307
  0.5000000000000000  0.5000000000000000  0.9992349046969307
  0.5000000000000000  0.5000000000000000  0.4992349046969307
  0.3750000000000000  0.3750000000000000  0.1257650953030693
  0.3750000000000000  0.3750000000000000  0.6257650953030693
  0.3750000000000000  0.8750000000000000  0.1257650953030693
  0.3750000000000000  0.8750000000000000  0.6257650953030693
  0.8750000000000000  0.3750000000000000  0.1257650953030693
  0.8750000000000000  0.3750000000000000  0.6257650953030693
  0.8750000000000000  0.8750000000000000  0.1257650953030693
  0.8750000000000000  0.8750000000000000  0.6257650953030693
  0.0000000000000000  0.2500000000000000  0.2492349046969307
  0.0000000000000000  0.2500000000000000  0.7492349046969307
  0.0000000000000000  0.7500000000000000  0.2492349046969307
  0.0000000000000000  0.7500000000000000  0.7492349046969307
  0.5000000000000000  0.2500000000000000  0.2492349046969307
  0.5000000000000000  0.2500000000000000  0.7492349046969307
  0.5000000000000000  0.7500000000000000  0.2492349046969307
  0.5000000000000000  0.7500000000000000  0.7492349046969307
  0.3750000000000000  0.1250000000000000  0.3757650953030693
  0.3750000000000000  0.1250000000000000  0.8757650953030693
  0.3750000000000000  0.6250000000000000  0.3757650953030693
  0.3750000000000000  0.6250000000000000  0.8757650953030693
  0.8750000000000000  0.1250000000000000  0.3757650953030693
  0.8750000000000000  0.1250000000000000  0.8757650953030693
  0.8750000000000000  0.6250000000000000  0.3757650953030693
  0.8750000000000000  0.6250000000000000  0.8757650953030693
  0.2500000000000000  0.0000000000000000  0.2492349046969307
  0.2500000000000000  0.0000000000000000  0.7492349046969307
  0.2500000000000000  0.5000000000000000  0.2492349046969307
  0.2500000000000000  0.5000000000000000  0.7492349046969307
  0.7500000000000000  0.0000000000000000  0.2492349046969307
  0.7500000000000000  0.0000000000000000  0.7492349046969307
  0.7500000000000000  0.5000000000000000  0.2492349046969307
  0.7500000000000000  0.5000000000000000  0.7492349046969307
  0.1250000000000000  0.3750000000000000  0.3757650953030693
  0.1250000000000000  0.3750000000000000  0.8757650953030693
  0.1250000000000000  0.8750000000000000  0.3757650953030693
  0.1250000000000000  0.8750000000000000  0.8757650953030693
  0.6250000000000000  0.3750000000000000  0.3757650953030693
  0.6250000000000000  0.3750000000000000  0.8757650953030693
  0.6250000000000000  0.8750000000000000  0.3757650953030693
  0.6250000000000000  0.8750000000000000  0.8757650953030693
  0.2500000000000000  0.2500000000000000  0.9992349046969307
  0.2500000000000000  0.2500000000000000  0.4992349046969307
  0.2500000000000000  0.7500000000000000  0.9992349046969307
  0.2500000000000000  0.7500000000000000  0.4992349046969307
  0.7500000000000000  0.2500000000000000  0.9992349046969307
  0.7500000000000000  0.2500000000000000  0.4992349046969307
  0.7500000000000000  0.7500000000000000  0.9992349046969307
  0.7500000000000000  0.7500000000000000  0.4992349046969307
  0.1250000000000000  0.1250000000000000  0.1257650953030693
  0.1250000000000000  0.1250000000000000  0.6257650953030693
  0.1250000000000000  0.6250000000000000  0.1257650953030693
  0.1250000000000000  0.6250000000000000  0.6257650953030693
  0.6250000000000000  0.1250000000000000  0.1257650953030693
  0.6250000000000000  0.1250000000000000  0.6257650953030693
  0.6250000000000000  0.6250000000000000  0.1257650953030693
  0.6250000000000000  0.6250000000000000  0.6257650953030693
 
  0.00000000E+00  0.00000000E+00  0.00000000E+00
  0.00000000E+00  0.00000000E+00  0.00000000E+00
  0.00000000E+00  0.00000000E+00  0.00000000E+00
  0.00000000E+00  0.00000000E+00  0.00000000E+00
  0.00000000E+00  0.00000000E+00  0.00000000E+00
  0.00000000E+00  0.00000000E+00  0.00000000E+00
  0.00000000E+00  0.00000000E+00  0.00000000E+00
  0.00000000E+00  0.00000000E+00  0.00000000E+00
  0.00000000E+00  0.00000000E+00  0.00000000E+00
  0.00000000E+00  0.00000000E+00  0.00000000E+00
  0.00000000E+00  0.00000000E+00  0.00000000E+00
  0.00000000E+00  0.00000000E+00  0.00000000E+00
  0.00000000E+00  0.00000000E+00  0.00000000E+00
  0.00000000E+00  0.00000000E+00  0.00000000E+00
  0.00000000E+00  0.00000000E+00  0.00000000E+00
  0.00000000E+00  0.00000000E+00  0.00000000E+00
  0.00000000E+00  0.00000000E+00  0.00000000E+00
  0.00000000E+00  0.00000000E+00  0.00000000E+00
  0.00000000E+00  0.00000000E+00  0.00000000E+00
  0.00000000E+00  0.00000000E+00  0.00000000E+00
  0.00000000E+00  0.00000000E+00  0.00000000E+00
  0.00000000E+00  0.00000000E+00  0.00000000E+00
  0.00000000E+00  0.00000000E+00  0.00000000E+00
  0.00000000E+00  0.00000000E+00  0.00000000E+00
  0.00000000E+00  0.00000000E+00  0.00000000E+00
  0.00000000E+00  0.00000000E+00  0.00000000E+00
  0.00000000E+00  0.00000000E+00  0.00000000E+00
  0.00000000E+00  0.00000000E+00  0.00000000E+00
  0.00000000E+00  0.00000000E+00  0.00000000E+00
  0.00000000E+00  0.00000000E+00  0.00000000E+00
  0.00000000E+00  0.00000000E+00  0.00000000E+00
  0.00000000E+00  0.00000000E+00  0.00000000E+00
  0.00000000E+00  0.00000000E+00  0.00000000E+00
  0.00000000E+00  0.00000000E+00  0.00000000E+00
  0.00000000E+00  0.00000000E+00  0.00000000E+00
  0.00000000E+00  0.00000000E+00  0.00000000E+00
  0.00000000E+00  0.00000000E+00  0.00000000E+00
  0.00000000E+00  0.00000000E+00  0.00000000E+00
  0.00000000E+00  0.00000000E+00  0.00000000E+00
  0.00000000E+00  0.00000000E+00  0.00000000E+00
  0.00000000E+00  0.00000000E+00  0.00000000E+00
  0.00000000E+00  0.00000000E+00  0.00000000E+00
  0.00000000E+00  0.00000000E+00  0.00000000E+00
  0.00000000E+00  0.00000000E+00  0.00000000E+00
  0.00000000E+00  0.00000000E+00  0.00000000E+00
  0.00000000E+00  0.00000000E+00  0.00000000E+00
  0.00000000E+00  0.00000000E+00  0.00000000E+00
  0.00000000E+00  0.00000000E+00  0.00000000E+00
  0.00000000E+00  0.00000000E+00  0.00000000E+00
  0.00000000E+00  0.00000000E+00  0.00000000E+00
  0.00000000E+00  0.00000000E+00  0.00000000E+00
  0.00000000E+00  0.00000000E+00  0.00000000E+00
  0.00000000E+00  0.00000000E+00  0.00000000E+00
  0.00000000E+00  0.00000000E+00  0.00000000E+00
  0.00000000E+00  0.00000000E+00  0.00000000E+00
  0.00000000E+00  0.00000000E+00  0.00000000E+00
  0.00000000E+00  0.00000000E+00  0.00000000E+00
  0.00000000E+00  0.00000000E+00  0.00000000E+00
  0.00000000E+00  0.00000000E+00  0.00000000E+00
  0.00000000E+00  0.00000000E+00  0.00000000E+00
  0.00000000E+00  0.00000000E+00  0.00000000E+00
  0.00000000E+00  0.00000000E+00  0.00000000E+00
  0.00000000E+00  0.00000000E+00  0.00000000E+00
  0.00000000E+00  0.00000000E+00  0.00000000E+00
