Si8                                     
   1.00000014768065     
    10.4260959999999994   -0.1063890000000000    0.0000000000000000
    -0.1063890000000000   10.6388739999999995    0.0000000000000000
     0.0000000000000000    0.0000000000000000   10.6388739999999995
   Si
    64
Direct
  0.0000000000000000  0.0000000000000000  0.9991207766570933
  0.0000000000000000  0.0000000000000000  0.4991207766570933
  0.0000000000000000  0.5000000000000000  0.9991207766570933
  0.0000000000000000  0.5000000000000000  0.4991207766570933
  0.5000000000000000  0.0000000000000000  0.9991207766570933
  0.5000000000000000  0.0000000000000000  0.4991207766570933
  0.5000000000000000  0.5000000000000000  0.9991207766570933
  0.5000000000000000  0.5000000000000000  0.4991207766570933
  0.3750000000000000  0.3750000000000000  0.1258792233429067
  0.3750000000000000  0.3750000000000000  0.6258792233429067
  0.3750000000000000  0.8750000000000000  0.1258792233429067
  0.3750000000000000  0.8750000000000000  0.6258792233429067
  0.8750000000000000  0.3750000000000000  0.1258792233429067
  0.8750000000000000  0.3750000000000000  0.6258792233429067
  0.8750000000000000  0.8750000000000000  0.1258792233429067
  0.8750000000000000  0.8750000000000000  0.6258792233429067
  0.0000000000000000  0.2500000000000000  0.2491207766570933
  0.0000000000000000  0.2500000000000000  0.7491207766570933
  0.0000000000000000  0.7500000000000000  0.2491207766570933
  0.0000000000000000  0.7500000000000000  0.7491207766570933
  0.5000000000000000  0.2500000000000000  0.2491207766570933
  0.5000000000000000  0.2500000000000000  0.7491207766570933
  0.5000000000000000  0.7500000000000000  0.2491207766570933
  0.5000000000000000  0.7500000000000000  0.7491207766570933
  0.3750000000000000  0.1250000000000000  0.3758792233429067
  0.3750000000000000  0.1250000000000000  0.8758792233429067
  0.3750000000000000  0.6250000000000000  0.3758792233429067
  0.3750000000000000  0.6250000000000000  0.8758792233429067
  0.8750000000000000  0.1250000000000000  0.3758792233429067
  0.8750000000000000  0.1250000000000000  0.8758792233429067
  0.8750000000000000  0.6250000000000000  0.3758792233429067
  0.8750000000000000  0.6250000000000000  0.8758792233429067
  0.2500000000000000  0.0000000000000000  0.2491207766570933
  0.2500000000000000  0.0000000000000000  0.7491207766570933
  0.2500000000000000  0.5000000000000000  0.2491207766570933
  0.2500000000000000  0.5000000000000000  0.7491207766570933
  0.7500000000000000  0.0000000000000000  0.2491207766570933
  0.7500000000000000  0.0000000000000000  0.7491207766570933
  0.7500000000000000  0.5000000000000000  0.2491207766570933
  0.7500000000000000  0.5000000000000000  0.7491207766570933
  0.1250000000000000  0.3750000000000000  0.3758792233429067
  0.1250000000000000  0.3750000000000000  0.8758792233429067
  0.1250000000000000  0.8750000000000000  0.3758792233429067
  0.1250000000000000  0.8750000000000000  0.8758792233429067
  0.6250000000000000  0.3750000000000000  0.3758792233429067
  0.6250000000000000  0.3750000000000000  0.8758792233429067
  0.6250000000000000  0.8750000000000000  0.3758792233429067
  0.6250000000000000  0.8750000000000000  0.8758792233429067
  0.2500000000000000  0.2500000000000000  0.9991207766570933
  0.2500000000000000  0.2500000000000000  0.4991207766570933
  0.2500000000000000  0.7500000000000000  0.9991207766570933
  0.2500000000000000  0.7500000000000000  0.4991207766570933
  0.7500000000000000  0.2500000000000000  0.9991207766570933
  0.7500000000000000  0.2500000000000000  0.4991207766570933
  0.7500000000000000  0.7500000000000000  0.9991207766570933
  0.7500000000000000  0.7500000000000000  0.4991207766570933
  0.1250000000000000  0.1250000000000000  0.1258792233429067
  0.1250000000000000  0.1250000000000000  0.6258792233429067
  0.1250000000000000  0.6250000000000000  0.1258792233429067
  0.1250000000000000  0.6250000000000000  0.6258792233429067
  0.6250000000000000  0.1250000000000000  0.1258792233429067
  0.6250000000000000  0.1250000000000000  0.6258792233429067
  0.6250000000000000  0.6250000000000000  0.1258792233429067
  0.6250000000000000  0.6250000000000000  0.6258792233429067
 
  0.00000000E+00  0.00000000E+00  0.00000000E+00
  0.00000000E+00  0.00000000E+00  0.00000000E+00
  0.00000000E+00  0.00000000E+00  0.00000000E+00
  0.00000000E+00  0.00000000E+00  0.00000000E+00
  0.00000000E+00  0.00000000E+00  0.00000000E+00
  0.00000000E+00  0.00000000E+00  0.00000000E+00
  0.00000000E+00  0.00000000E+00  0.00000000E+00
  0.00000000E+00  0.00000000E+00  0.00000000E+00
  0.00000000E+00  0.00000000E+00  0.00000000E+00
  0.00000000E+00  0.00000000E+00  0.00000000E+00
  0.00000000E+00  0.00000000E+00  0.00000000E+00
  0.00000000E+00  0.00000000E+00  0.00000000E+00
  0.00000000E+00  0.00000000E+00  0.00000000E+00
  0.00000000E+00  0.00000000E+00  0.00000000E+00
  0.00000000E+00  0.00000000E+00  0.00000000E+00
  0.00000000E+00  0.00000000E+00  0.00000000E+00
  0.00000000E+00  0.00000000E+00  0.00000000E+00
  0.00000000E+00  0.00000000E+00  0.00000000E+00
  0.00000000E+00  0.00000000E+00  0.00000000E+00
  0.00000000E+00  0.00000000E+00  0.00000000E+00
  0.00000000E+00  0.00000000E+00  0.00000000E+00
  0.00000000E+00  0.00000000E+00  0.00000000E+00
  0.00000000E+00  0.00000000E+00  0.00000000E+00
  0.00000000E+00  0.00000000E+00  0.00000000E+00
  0.00000000E+00  0.00000000E+00  0.00000000E+00
  0.00000000E+00  0.00000000E+00  0.00000000E+00
  0.00000000E+00  0.00000000E+00  0.00000000E+00
  0.00000000E+00  0.00000000E+00  0.00000000E+00
  0.00000000E+00  0.00000000E+00  0.00000000E+00
  0.00000000E+00  0.00000000E+00  0.00000000E+00
  0.00000000E+00  0.00000000E+00  0.00000000E+00
  0.00000000E+00  0.00000000E+00  0.00000000E+00
  0.00000000E+00  0.00000000E+00  0.00000000E+00
  0.00000000E+00  0.00000000E+00  0.00000000E+00
  0.00000000E+00  0.00000000E+00  0.00000000E+00
  0.00000000E+00  0.00000000E+00  0.00000000E+00
  0.00000000E+00  0.00000000E+00  0.00000000E+00
  0.00000000E+00  0.00000000E+00  0.00000000E+00
  0.00000000E+00  0.00000000E+00  0.00000000E+00
  0.00000000E+00  0.00000000E+00  0.00000000E+00
  0.00000000E+00  0.00000000E+00  0.00000000E+00
  0.00000000E+00  0.00000000E+00  0.00000000E+00
  0.00000000E+00  0.00000000E+00  0.00000000E+00
  0.00000000E+00  0.00000000E+00  0.00000000E+00
  0.00000000E+00  0.00000000E+00  0.00000000E+00
  0.00000000E+00  0.00000000E+00  0.00000000E+00
  0.00000000E+00  0.00000000E+00  0.00000000E+00
  0.00000000E+00  0.00000000E+00  0.00000000E+00
  0.00000000E+00  0.00000000E+00  0.00000000E+00
  0.00000000E+00  0.00000000E+00  0.00000000E+00
  0.00000000E+00  0.00000000E+00  0.00000000E+00
  0.00000000E+00  0.00000000E+00  0.00000000E+00
  0.00000000E+00  0.00000000E+00  0.00000000E+00
  0.00000000E+00  0.00000000E+00  0.00000000E+00
  0.00000000E+00  0.00000000E+00  0.00000000E+00
  0.00000000E+00  0.00000000E+00  0.00000000E+00
  0.00000000E+00  0.00000000E+00  0.00000000E+00
  0.00000000E+00  0.00000000E+00  0.00000000E+00
  0.00000000E+00  0.00000000E+00  0.00000000E+00
  0.00000000E+00  0.00000000E+00  0.00000000E+00
  0.00000000E+00  0.00000000E+00  0.00000000E+00
  0.00000000E+00  0.00000000E+00  0.00000000E+00
  0.00000000E+00  0.00000000E+00  0.00000000E+00
  0.00000000E+00  0.00000000E+00  0.00000000E+00
