Si8                                     
   1.00000014768065     
    10.7797499999999999   -0.0270850000000000    0.0000000000000000
    -0.0270850000000000   10.8339189999999999    0.0000000000000000
     0.0000000000000000    0.0000000000000000   10.8339189999999999
   Si
    64
Direct
  0.0000000000000000  0.0000000000000000  0.9998261320267560
  0.0000000000000000  0.0000000000000000  0.4998261320267560
  0.0000000000000000  0.5000000000000000  0.9998261320267560
  0.0000000000000000  0.5000000000000000  0.4998261320267560
  0.5000000000000000  0.0000000000000000  0.9998261320267560
  0.5000000000000000  0.0000000000000000  0.4998261320267560
  0.5000000000000000  0.5000000000000000  0.9998261320267560
  0.5000000000000000  0.5000000000000000  0.4998261320267560
  0.3750000000000000  0.3750000000000000  0.1251738679732440
  0.3750000000000000  0.3750000000000000  0.6251738679732440
  0.3750000000000000  0.8750000000000000  0.1251738679732440
  0.3750000000000000  0.8750000000000000  0.6251738679732440
  0.8750000000000000  0.3750000000000000  0.1251738679732440
  0.8750000000000000  0.3750000000000000  0.6251738679732440
  0.8750000000000000  0.8750000000000000  0.1251738679732440
  0.8750000000000000  0.8750000000000000  0.6251738679732440
  0.0000000000000000  0.2500000000000000  0.2498261320267560
  0.0000000000000000  0.2500000000000000  0.7498261320267560
  0.0000000000000000  0.7500000000000000  0.2498261320267560
  0.0000000000000000  0.7500000000000000  0.7498261320267560
  0.5000000000000000  0.2500000000000000  0.2498261320267560
  0.5000000000000000  0.2500000000000000  0.7498261320267560
  0.5000000000000000  0.7500000000000000  0.2498261320267560
  0.5000000000000000  0.7500000000000000  0.7498261320267560
  0.3750000000000000  0.1250000000000000  0.3751738679732440
  0.3750000000000000  0.1250000000000000  0.8751738679732440
  0.3750000000000000  0.6250000000000000  0.3751738679732440
  0.3750000000000000  0.6250000000000000  0.8751738679732440
  0.8750000000000000  0.1250000000000000  0.3751738679732440
  0.8750000000000000  0.1250000000000000  0.8751738679732440
  0.8750000000000000  0.6250000000000000  0.3751738679732440
  0.8750000000000000  0.6250000000000000  0.8751738679732440
  0.2500000000000000  0.0000000000000000  0.2498261320267560
  0.2500000000000000  0.0000000000000000  0.7498261320267560
  0.2500000000000000  0.5000000000000000  0.2498261320267560
  0.2500000000000000  0.5000000000000000  0.7498261320267560
  0.7500000000000000  0.0000000000000000  0.2498261320267560
  0.7500000000000000  0.0000000000000000  0.7498261320267560
  0.7500000000000000  0.5000000000000000  0.2498261320267560
  0.7500000000000000  0.5000000000000000  0.7498261320267560
  0.1250000000000000  0.3750000000000000  0.3751738679732440
  0.1250000000000000  0.3750000000000000  0.8751738679732440
  0.1250000000000000  0.8750000000000000  0.3751738679732440
  0.1250000000000000  0.8750000000000000  0.8751738679732440
  0.6250000000000000  0.3750000000000000  0.3751738679732440
  0.6250000000000000  0.3750000000000000  0.8751738679732440
  0.6250000000000000  0.8750000000000000  0.3751738679732440
  0.6250000000000000  0.8750000000000000  0.8751738679732440
  0.2500000000000000  0.2500000000000000  0.9998261320267560
  0.2500000000000000  0.2500000000000000  0.4998261320267560
  0.2500000000000000  0.7500000000000000  0.9998261320267560
  0.2500000000000000  0.7500000000000000  0.4998261320267560
  0.7500000000000000  0.2500000000000000  0.9998261320267560
  0.7500000000000000  0.2500000000000000  0.4998261320267560
  0.7500000000000000  0.7500000000000000  0.9998261320267560
  0.7500000000000000  0.7500000000000000  0.4998261320267560
  0.1250000000000000  0.1250000000000000  0.1251738679732440
  0.1250000000000000  0.1250000000000000  0.6251738679732440
  0.1250000000000000  0.6250000000000000  0.1251738679732440
  0.1250000000000000  0.6250000000000000  0.6251738679732440
  0.6250000000000000  0.1250000000000000  0.1251738679732440
  0.6250000000000000  0.1250000000000000  0.6251738679732440
  0.6250000000000000  0.6250000000000000  0.1251738679732440
  0.6250000000000000  0.6250000000000000  0.6251738679732440
 
  0.00000000E+00  0.00000000E+00  0.00000000E+00
  0.00000000E+00  0.00000000E+00  0.00000000E+00
  0.00000000E+00  0.00000000E+00  0.00000000E+00
  0.00000000E+00  0.00000000E+00  0.00000000E+00
  0.00000000E+00  0.00000000E+00  0.00000000E+00
  0.00000000E+00  0.00000000E+00  0.00000000E+00
  0.00000000E+00  0.00000000E+00  0.00000000E+00
  0.00000000E+00  0.00000000E+00  0.00000000E+00
  0.00000000E+00  0.00000000E+00  0.00000000E+00
  0.00000000E+00  0.00000000E+00  0.00000000E+00
  0.00000000E+00  0.00000000E+00  0.00000000E+00
  0.00000000E+00  0.00000000E+00  0.00000000E+00
  0.00000000E+00  0.00000000E+00  0.00000000E+00
  0.00000000E+00  0.00000000E+00  0.00000000E+00
  0.00000000E+00  0.00000000E+00  0.00000000E+00
  0.00000000E+00  0.00000000E+00  0.00000000E+00
  0.00000000E+00  0.00000000E+00  0.00000000E+00
  0.00000000E+00  0.00000000E+00  0.00000000E+00
  0.00000000E+00  0.00000000E+00  0.00000000E+00
  0.00000000E+00  0.00000000E+00  0.00000000E+00
  0.00000000E+00  0.00000000E+00  0.00000000E+00
  0.00000000E+00  0.00000000E+00  0.00000000E+00
  0.00000000E+00  0.00000000E+00  0.00000000E+00
  0.00000000E+00  0.00000000E+00  0.00000000E+00
  0.00000000E+00  0.00000000E+00  0.00000000E+00
  0.00000000E+00  0.00000000E+00  0.00000000E+00
  0.00000000E+00  0.00000000E+00  0.00000000E+00
  0.00000000E+00  0.00000000E+00  0.00000000E+00
  0.00000000E+00  0.00000000E+00  0.00000000E+00
  0.00000000E+00  0.00000000E+00  0.00000000E+00
  0.00000000E+00  0.00000000E+00  0.00000000E+00
  0.00000000E+00  0.00000000E+00  0.00000000E+00
  0.00000000E+00  0.00000000E+00  0.00000000E+00
  0.00000000E+00  0.00000000E+00  0.00000000E+00
  0.00000000E+00  0.00000000E+00  0.00000000E+00
  0.00000000E+00  0.00000000E+00  0.00000000E+00
  0.00000000E+00  0.00000000E+00  0.00000000E+00
  0.00000000E+00  0.00000000E+00  0.00000000E+00
  0.00000000E+00  0.00000000E+00  0.00000000E+00
  0.00000000E+00  0.00000000E+00  0.00000000E+00
  0.00000000E+00  0.00000000E+00  0.00000000E+00
  0.00000000E+00  0.00000000E+00  0.00000000E+00
  0.00000000E+00  0.00000000E+00  0.00000000E+00
  0.00000000E+00  0.00000000E+00  0.00000000E+00
  0.00000000E+00  0.00000000E+00  0.00000000E+00
  0.00000000E+00  0.00000000E+00  0.00000000E+00
  0.00000000E+00  0.00000000E+00  0.00000000E+00
  0.00000000E+00  0.00000000E+00  0.00000000E+00
  0.00000000E+00  0.00000000E+00  0.00000000E+00
  0.00000000E+00  0.00000000E+00  0.00000000E+00
  0.00000000E+00  0.00000000E+00  0.00000000E+00
  0.00000000E+00  0.00000000E+00  0.00000000E+00
  0.00000000E+00  0.00000000E+00  0.00000000E+00
  0.00000000E+00  0.00000000E+00  0.00000000E+00
  0.00000000E+00  0.00000000E+00  0.00000000E+00
  0.00000000E+00  0.00000000E+00  0.00000000E+00
  0.00000000E+00  0.00000000E+00  0.00000000E+00
  0.00000000E+00  0.00000000E+00  0.00000000E+00
  0.00000000E+00  0.00000000E+00  0.00000000E+00
  0.00000000E+00  0.00000000E+00  0.00000000E+00
  0.00000000E+00  0.00000000E+00  0.00000000E+00
  0.00000000E+00  0.00000000E+00  0.00000000E+00
  0.00000000E+00  0.00000000E+00  0.00000000E+00
  0.00000000E+00  0.00000000E+00  0.00000000E+00
