Si8                                     
   1.00000014768065     
    10.6714110000000009   -0.0812540000000000    0.0000000000000000
    -0.0812540000000000   10.8339189999999999    0.0000000000000000
     0.0000000000000000    0.0000000000000000   10.8339189999999999
   Si
    64
Direct
  0.0000000000000000  0.0000000000000000  0.9994611713534413
  0.0000000000000000  0.0000000000000000  0.4994611713534413
  0.0000000000000000  0.5000000000000000  0.9994611713534413
  0.0000000000000000  0.5000000000000000  0.4994611713534413
  0.5000000000000000  0.0000000000000000  0.9994611713534413
  0.5000000000000000  0.0000000000000000  0.4994611713534413
  0.5000000000000000  0.5000000000000000  0.9994611713534413
  0.5000000000000000  0.5000000000000000  0.4994611713534413
  0.3750000000000000  0.3750000000000000  0.1255388286465587
  0.3750000000000000  0.3750000000000000  0.6255388286465587
  0.3750000000000000  0.8750000000000000  0.1255388286465587
  0.3750000000000000  0.8750000000000000  0.6255388286465587
  0.8750000000000000  0.3750000000000000  0.1255388286465587
  0.8750000000000000  0.3750000000000000  0.6255388286465587
  0.8750000000000000  0.8750000000000000  0.1255388286465587
  0.8750000000000000  0.8750000000000000  0.6255388286465587
  0.0000000000000000  0.2500000000000000  0.2494611713534413
  0.0000000000000000  0.2500000000000000  0.7494611713534413
  0.0000000000000000  0.7500000000000000  0.2494611713534413
  0.0000000000000000  0.7500000000000000  0.7494611713534413
  0.5000000000000000  0.2500000000000000  0.2494611713534413
  0.5000000000000000  0.2500000000000000  0.7494611713534413
  0.5000000000000000  0.7500000000000000  0.2494611713534413
  0.5000000000000000  0.7500000000000000  0.7494611713534413
  0.3750000000000000  0.1250000000000000  0.3755388286465587
  0.3750000000000000  0.1250000000000000  0.8755388286465587
  0.3750000000000000  0.6250000000000000  0.3755388286465587
  0.3750000000000000  0.6250000000000000  0.8755388286465587
  0.8750000000000000  0.1250000000000000  0.3755388286465587
  0.8750000000000000  0.1250000000000000  0.8755388286465587
  0.8750000000000000  0.6250000000000000  0.3755388286465587
  0.8750000000000000  0.6250000000000000  0.8755388286465587
  0.2500000000000000  0.0000000000000000  0.2494611713534413
  0.2500000000000000  0.0000000000000000  0.7494611713534413
  0.2500000000000000  0.5000000000000000  0.2494611713534413
  0.2500000000000000  0.5000000000000000  0.7494611713534413
  0.7500000000000000  0.0000000000000000  0.2494611713534413
  0.7500000000000000  0.0000000000000000  0.7494611713534413
  0.7500000000000000  0.5000000000000000  0.2494611713534413
  0.7500000000000000  0.5000000000000000  0.7494611713534413
  0.1250000000000000  0.3750000000000000  0.3755388286465587
  0.1250000000000000  0.3750000000000000  0.8755388286465587
  0.1250000000000000  0.8750000000000000  0.3755388286465587
  0.1250000000000000  0.8750000000000000  0.8755388286465587
  0.6250000000000000  0.3750000000000000  0.3755388286465587
  0.6250000000000000  0.3750000000000000  0.8755388286465587
  0.6250000000000000  0.8750000000000000  0.3755388286465587
  0.6250000000000000  0.8750000000000000  0.8755388286465587
  0.2500000000000000  0.2500000000000000  0.9994611713534413
  0.2500000000000000  0.2500000000000000  0.4994611713534413
  0.2500000000000000  0.7500000000000000  0.9994611713534413
  0.2500000000000000  0.7500000000000000  0.4994611713534413
  0.7500000000000000  0.2500000000000000  0.9994611713534413
  0.7500000000000000  0.2500000000000000  0.4994611713534413
  0.7500000000000000  0.7500000000000000  0.9994611713534413
  0.7500000000000000  0.7500000000000000  0.4994611713534413
  0.1250000000000000  0.1250000000000000  0.1255388286465587
  0.1250000000000000  0.1250000000000000  0.6255388286465587
  0.1250000000000000  0.6250000000000000  0.1255388286465587
  0.1250000000000000  0.6250000000000000  0.6255388286465587
  0.6250000000000000  0.1250000000000000  0.1255388286465587
  0.6250000000000000  0.1250000000000000  0.6255388286465587
  0.6250000000000000  0.6250000000000000  0.1255388286465587
  0.6250000000000000  0.6250000000000000  0.6255388286465587
 
  0.00000000E+00  0.00000000E+00  0.00000000E+00
  0.00000000E+00  0.00000000E+00  0.00000000E+00
  0.00000000E+00  0.00000000E+00  0.00000000E+00
  0.00000000E+00  0.00000000E+00  0.00000000E+00
  0.00000000E+00  0.00000000E+00  0.00000000E+00
  0.00000000E+00  0.00000000E+00  0.00000000E+00
  0.00000000E+00  0.00000000E+00  0.00000000E+00
  0.00000000E+00  0.00000000E+00  0.00000000E+00
  0.00000000E+00  0.00000000E+00  0.00000000E+00
  0.00000000E+00  0.00000000E+00  0.00000000E+00
  0.00000000E+00  0.00000000E+00  0.00000000E+00
  0.00000000E+00  0.00000000E+00  0.00000000E+00
  0.00000000E+00  0.00000000E+00  0.00000000E+00
  0.00000000E+00  0.00000000E+00  0.00000000E+00
  0.00000000E+00  0.00000000E+00  0.00000000E+00
  0.00000000E+00  0.00000000E+00  0.00000000E+00
  0.00000000E+00  0.00000000E+00  0.00000000E+00
  0.00000000E+00  0.00000000E+00  0.00000000E+00
  0.00000000E+00  0.00000000E+00  0.00000000E+00
  0.00000000E+00  0.00000000E+00  0.00000000E+00
  0.00000000E+00  0.00000000E+00  0.00000000E+00
  0.00000000E+00  0.00000000E+00  0.00000000E+00
  0.00000000E+00  0.00000000E+00  0.00000000E+00
  0.00000000E+00  0.00000000E+00  0.00000000E+00
  0.00000000E+00  0.00000000E+00  0.00000000E+00
  0.00000000E+00  0.00000000E+00  0.00000000E+00
  0.00000000E+00  0.00000000E+00  0.00000000E+00
  0.00000000E+00  0.00000000E+00  0.00000000E+00
  0.00000000E+00  0.00000000E+00  0.00000000E+00
  0.00000000E+00  0.00000000E+00  0.00000000E+00
  0.00000000E+00  0.00000000E+00  0.00000000E+00
  0.00000000E+00  0.00000000E+00  0.00000000E+00
  0.00000000E+00  0.00000000E+00  0.00000000E+00
  0.00000000E+00  0.00000000E+00  0.00000000E+00
  0.00000000E+00  0.00000000E+00  0.00000000E+00
  0.00000000E+00  0.00000000E+00  0.00000000E+00
  0.00000000E+00  0.00000000E+00  0.00000000E+00
  0.00000000E+00  0.00000000E+00  0.00000000E+00
  0.00000000E+00  0.00000000E+00  0.00000000E+00
  0.00000000E+00  0.00000000E+00  0.00000000E+00
  0.00000000E+00  0.00000000E+00  0.00000000E+00
  0.00000000E+00  0.00000000E+00  0.00000000E+00
  0.00000000E+00  0.00000000E+00  0.00000000E+00
  0.00000000E+00  0.00000000E+00  0.00000000E+00
  0.00000000E+00  0.00000000E+00  0.00000000E+00
  0.00000000E+00  0.00000000E+00  0.00000000E+00
  0.00000000E+00  0.00000000E+00  0.00000000E+00
  0.00000000E+00  0.00000000E+00  0.00000000E+00
  0.00000000E+00  0.00000000E+00  0.00000000E+00
  0.00000000E+00  0.00000000E+00  0.00000000E+00
  0.00000000E+00  0.00000000E+00  0.00000000E+00
  0.00000000E+00  0.00000000E+00  0.00000000E+00
  0.00000000E+00  0.00000000E+00  0.00000000E+00
  0.00000000E+00  0.00000000E+00  0.00000000E+00
  0.00000000E+00  0.00000000E+00  0.00000000E+00
  0.00000000E+00  0.00000000E+00  0.00000000E+00
  0.00000000E+00  0.00000000E+00  0.00000000E+00
  0.00000000E+00  0.00000000E+00  0.00000000E+00
  0.00000000E+00  0.00000000E+00  0.00000000E+00
  0.00000000E+00  0.00000000E+00  0.00000000E+00
  0.00000000E+00  0.00000000E+00  0.00000000E+00
  0.00000000E+00  0.00000000E+00  0.00000000E+00
  0.00000000E+00  0.00000000E+00  0.00000000E+00
  0.00000000E+00  0.00000000E+00  0.00000000E+00
